# Residuals     
# Time          	p               	sigmaxx         	sigmaxy         	sigmayy         	sigmazz         
0.005           	3.07811080e-01	3.29434720e-01	1.00000000e+00	5.43772320e-01	0.00000000e+00
0.01            	1.98698740e-01	2.11155990e-01	4.51424770e-01	3.45470330e-01	0.00000000e+00
0.015           	4.96540110e-01	1.78981450e-01	2.61300860e-01	3.39389670e-01	0.00000000e+00
0.02            	2.42517790e-01	1.50171870e-01	1.84835180e-01	2.17845540e-01	0.00000000e+00
0.025           	1.41782440e-01	1.28306930e-01	1.42627250e-01	1.96060020e-01	0.00000000e+00
0.03            	1.89636430e-01	1.11575000e-01	1.15845880e-01	1.20278760e-01	0.00000000e+00
0.035           	1.92914730e-01	9.84623650e-02	9.74540050e-02	1.36816010e-01	0.00000000e+00
0.04            	6.70004790e-01	8.81370840e-02	8.40621190e-02	7.21868000e-02	0.00000000e+00
0.045           	1.13145900e-01	7.98338290e-02	7.38883070e-02	1.03467530e-01	0.00000000e+00
0.05            	1.57344830e-01	7.29266570e-02	6.59407080e-02	9.93720350e-02	0.00000000e+00
0.055           	5.24629640e-01	6.71179490e-02	5.95509250e-02	8.28123480e-02	0.00000000e+00
0.06            	2.25707620e-01	6.22136110e-02	5.43080610e-02	8.37311510e-02	0.00000000e+00
0.065           	2.20253530e-01	5.80208610e-02	4.99420290e-02	8.04319420e-02	0.00000000e+00
0.07            	3.86391120e-01	5.43936460e-02	4.62586130e-02	5.88759550e-02	0.00000000e+00
0.075           	1.33777270e-01	5.11899030e-02	4.30931130e-02	5.02121330e-02	0.00000000e+00
0.08            	1.94152180e-01	4.83535010e-02	4.03484070e-02	7.34559000e-02	0.00000000e+00
0.085           	1.83747870e-01	4.58273920e-02	3.79505880e-02	4.81308950e-02	0.00000000e+00
0.09            	2.21245760e-01	4.35729830e-02	3.58384020e-02	4.83490870e-02	0.00000000e+00
0.095           	1.40166340e-01	4.15487410e-02	3.39641090e-02	4.25524110e-02	0.00000000e+00
0.1             	1.33515430e-01	3.97211210e-02	3.22888590e-02	5.45529560e-02	0.00000000e+00
0.105           	1.05277440e-01	3.80472540e-02	3.07706370e-02	3.99485760e-02	0.00000000e+00
0.11            	2.96117710e-01	3.65170480e-02	2.93973530e-02	5.00301560e-02	0.00000000e+00
0.115           	5.78059880e-01	3.51167570e-02	2.81509140e-02	3.45731590e-02	0.00000000e+00
0.12            	3.82504010e-01	3.38194820e-02	2.70146520e-02	3.22492200e-02	0.00000000e+00
0.125           	2.29939200e-01	3.26212280e-02	2.59746820e-02	3.69525750e-02	0.00000000e+00
0.13            	3.16356590e-01	3.15132810e-02	2.50193430e-02	2.93080410e-02	0.00000000e+00
0.135           	2.37699090e-01	3.04857650e-02	2.41387750e-02	4.57795070e-02	0.00000000e+00
0.14            	2.65238430e-01	2.95301890e-02	2.33241920e-02	4.39925570e-02	0.00000000e+00
0.145           	1.20876400e-01	2.86344770e-02	2.25638870e-02	4.07780960e-02	0.00000000e+00
0.15            	1.77215310e-01	2.77917450e-02	2.18570060e-02	3.28770270e-02	0.00000000e+00
0.155           	1.34048930e-01	2.70024650e-02	2.11981460e-02	3.55422020e-02	0.00000000e+00
0.16            	1.91666850e-01	2.62616860e-02	2.05826070e-02	3.05643010e-02	0.00000000e+00
0.165           	2.31951330e-01	2.55650510e-02	2.00036440e-02	2.77835630e-02	0.00000000e+00
0.17            	1.55303620e-01	2.49067150e-02	1.94596730e-02	3.41783480e-02	0.00000000e+00
0.175           	1.32968560e-01	2.42805760e-02	1.89483310e-02	3.20275790e-02	0.00000000e+00
0.18            	3.53973450e-01	2.36887180e-02	1.84667870e-02	2.84178410e-02	0.00000000e+00
0.185           	1.84274970e-01	2.31283900e-02	1.80125290e-02	1.94357210e-02	0.00000000e+00
0.19            	2.86150310e-01	2.25971280e-02	1.75833190e-02	3.13367510e-02	0.00000000e+00
0.195           	3.04329670e-01	2.20927190e-02	1.71777570e-02	2.63949640e-02	0.00000000e+00
0.2             	1.83601860e-01	2.16104100e-02	1.67916970e-02	2.37164840e-02	0.00000000e+00
0.205           	2.66239060e-01	2.11485110e-02	1.64245310e-02	2.06957390e-02	0.00000000e+00
0.21            	1.76899630e-01	2.07083530e-02	1.60756920e-02	2.49921070e-02	0.00000000e+00
0.215           	1.77437020e-01	2.02884310e-02	1.57438540e-02	2.26017530e-02	0.00000000e+00
0.22            	1.90061940e-01	1.98873780e-02	1.54278140e-02	2.04199360e-02	0.00000000e+00
0.225           	1.32712110e-01	1.95039450e-02	1.51264800e-02	2.22669940e-02	0.00000000e+00
0.23            	1.25279860e-01	1.91369940e-02	1.48388580e-02	1.80252710e-02	0.00000000e+00
0.235           	3.04498400e-01	1.87854800e-02	1.45640410e-02	2.42685920e-02	0.00000000e+00
0.24            	1.73973810e-01	1.84475160e-02	1.43012010e-02	1.29562080e-02	0.00000000e+00
0.245           	1.31370920e-01	1.81205130e-02	1.40480290e-02	1.63843190e-02	0.00000000e+00
0.25            	1.64423500e-01	1.78064760e-02	1.38051330e-02	1.80267100e-02	0.00000000e+00
0.255           	1.63012670e-01	1.75046480e-02	1.35721980e-02	1.09888920e-02	0.00000000e+00
0.26            	1.23487530e-01	1.72143310e-02	1.33486290e-02	1.78025610e-02	0.00000000e+00
0.265           	1.40630470e-01	1.69348760e-02	1.31338770e-02	1.24421950e-02	0.00000000e+00
0.27            	2.87696330e-01	1.66653780e-02	1.29274950e-02	1.17075510e-02	0.00000000e+00
0.275           	1.41922360e-01	1.64028040e-02	1.27297590e-02	1.52052200e-02	0.00000000e+00
0.28            	4.64723980e-01	1.61495620e-02	1.25378230e-02	1.76973460e-02	0.00000000e+00
0.285           	1.77230700e-01	1.59051610e-02	1.23528740e-02	1.40130010e-02	0.00000000e+00
0.29            	4.48004840e-01	1.56691490e-02	1.21746060e-02	1.27530710e-02	0.00000000e+00
0.295           	5.39005060e-01	1.54411010e-02	1.20026670e-02	1.21396690e-02	0.00000000e+00
0.3             	3.20718100e-01	1.52206210e-02	1.18367290e-02	1.57048090e-02	0.00000000e+00
0.305           	5.79636750e-01	1.50073410e-02	1.16764890e-02	1.36698660e-02	0.00000000e+00
0.31            	3.35307300e-01	1.48009140e-02	1.15216620e-02	1.33543230e-02	0.00000000e+00
0.315           	3.45247680e-01	1.46010160e-02	1.13719800e-02	1.37261830e-02	0.00000000e+00
0.32            	1.94655770e-01	1.44073430e-02	1.12271960e-02	1.23602020e-02	0.00000000e+00
0.325           	5.65322560e-01	1.42196090e-02	1.10870750e-02	1.60387540e-02	0.00000000e+00
0.33            	3.59427670e-01	1.40375480e-02	1.09513990e-02	1.18131210e-02	0.00000000e+00
0.335           	1.36726290e-01	1.38591630e-02	1.08199620e-02	1.62786040e-02	0.00000000e+00
0.34            	2.18509540e-01	1.36857330e-02	1.06925710e-02	1.27305990e-02	0.00000000e+00
0.345           	1.20415730e-01	1.35173310e-02	1.05690440e-02	1.70818230e-02	0.00000000e+00
0.35            	1.87450890e-01	1.33537460e-02	1.04487070e-02	1.27688480e-02	0.00000000e+00
0.355           	3.91452970e-01	1.31947780e-02	1.03313660e-02	1.39256540e-02	0.00000000e+00
0.36            	1.31470530e-01	1.30402320e-02	1.02174390e-02	1.07098500e-02	0.00000000e+00
0.365           	4.33566750e-01	1.28891540e-02	1.01070760e-02	1.06599230e-02	0.00000000e+00
0.37            	1.64023740e-01	1.27411390e-02	1.00002670e-02	1.45686620e-02	0.00000000e+00
0.375           	1.15117600e-01	1.25970920e-02	9.89644920e-03	1.25307290e-02	0.00000000e+00
0.38            	2.69516680e-01	1.24568570e-02	9.79550180e-03	1.47850050e-02	0.00000000e+00
0.385           	3.32496840e-01	1.23202860e-02	9.69671070e-03	1.02924350e-02	0.00000000e+00
0.39            	6.23193560e-01	1.21872400e-02	9.60021780e-03	1.27609170e-02	0.00000000e+00
0.395           	1.46951770e-01	1.20575850e-02	9.50629570e-03	1.26266580e-02	0.00000000e+00
0.4             	1.33970230e-01	1.19311960e-02	9.41484490e-03	1.21678030e-02	0.00000000e+00
0.405           	2.82748420e-01	1.18079510e-02	9.32577090e-03	1.05972310e-02	0.00000000e+00
0.41            	1.12227370e-01	1.16877360e-02	9.23898390e-03	1.34933650e-02	0.00000000e+00
0.415           	4.59608750e-01	1.15704430e-02	9.15439840e-03	1.02603490e-02	0.00000000e+00
0.42            	1.50157280e-01	1.14559680e-02	9.07193320e-03	9.87718160e-03	0.00000000e+00
0.425           	3.29188240e-01	1.13442120e-02	8.99151100e-03	1.13611480e-02	0.00000000e+00
0.43            	1.27680150e-01	1.12350800e-02	8.91305800e-03	1.12840690e-02	0.00000000e+00
0.435           	1.81199130e-01	1.11284830e-02	8.83650400e-03	1.01526060e-02	0.00000000e+00
0.44            	1.94145520e-01	1.10243370e-02	8.76178200e-03	1.26897540e-02	0.00000000e+00
0.445           	1.31904560e-01	1.09225650e-02	8.68882800e-03	9.28190750e-03	0.00000000e+00
0.45            	1.28258650e-01	1.08227750e-02	8.61758110e-03	1.05525290e-02	0.00000000e+00
0.455           	1.89532580e-01	1.07243130e-02	8.54798290e-03	1.11314550e-02	0.00000000e+00
0.46            	2.21199410e-01	1.06280240e-02	8.47997760e-03	7.25704130e-03	0.00000000e+00
0.465           	1.60906900e-01	1.05338400e-02	8.41351200e-03	9.49963440e-03	0.00000000e+00
0.47            	1.50943600e-01	1.04416940e-02	8.34853520e-03	1.01313440e-02	0.00000000e+00
0.475           	1.94640930e-01	1.03515210e-02	8.28499820e-03	1.02345320e-02	0.00000000e+00
0.48            	2.77594280e-01	1.02632600e-02	8.22285430e-03	7.09842250e-03	0.00000000e+00
0.485           	1.56932010e-01	1.01761790e-02	8.16205880e-03	9.95131910e-03	0.00000000e+00
0.49            	1.94650970e-01	1.00904850e-02	8.10242370e-03	9.30679930e-03	0.00000000e+00
0.495           	1.73242970e-01	1.00065620e-02	8.04357610e-03	9.14336430e-03	0.00000000e+00
0.5             	1.91695640e-01	9.92416700e-03	7.98596770e-03	8.82778430e-03	0.00000000e+00
0.505           	3.51147940e-01	9.84360640e-03	7.92956030e-03	8.66270430e-03	0.00000000e+00
0.51            	2.10766050e-01	9.76471480e-03	7.87431680e-03	8.49243400e-03	0.00000000e+00
0.515           	1.69796400e-01	9.68740780e-03	7.82020200e-03	9.22123300e-03	0.00000000e+00
0.52            	2.97951080e-01	9.61179850e-03	7.76718190e-03	9.35696960e-03	0.00000000e+00
0.525           	1.56878150e-01	9.53752620e-03	7.71539210e-03	8.31062040e-03	0.00000000e+00
0.53            	1.72039810e-01	9.46464180e-03	7.66442130e-03	8.46480060e-03	0.00000000e+00
0.535           	2.57759620e-01	9.39313880e-03	7.61448350e-03	8.42958050e-03	0.00000000e+00
0.54            	4.59771480e-01	9.32299240e-03	7.56553160e-03	8.13629100e-03	0.00000000e+00
0.545           	1.49278830e-01	9.25401900e-03	7.51753170e-03	4.96015590e-03	0.00000000e+00
0.55            	6.57065470e-01	9.18646660e-03	7.47045460e-03	8.77858520e-03	0.00000000e+00
0.555           	2.87395920e-01	9.12020980e-03	7.42427360e-03	7.46031770e-03	0.00000000e+00
0.56            	1.50313510e-01	9.05518590e-03	7.37896340e-03	5.92309320e-03	0.00000000e+00
0.565           	2.22988100e-01	8.99135310e-03	7.33449950e-03	7.08399990e-03	0.00000000e+00
0.57            	9.58546540e-01	8.92867720e-03	7.29085850e-03	6.77521620e-03	0.00000000e+00
0.575           	6.27673000e-01	8.86726060e-03	7.24803840e-03	6.16807550e-03	0.00000000e+00
0.58            	1.73069990e-01	8.80683090e-03	7.20597460e-03	9.70766760e-03	0.00000000e+00
0.585           	1.43150840e-01	8.74743510e-03	7.16466130e-03	1.20677600e-02	0.00000000e+00
0.59            	1.78431170e-01	8.68907010e-03	7.12408300e-03	1.02608690e-02	0.00000000e+00
0.595           	2.88945050e-01	8.63171770e-03	7.08422180e-03	8.35148500e-03	0.00000000e+00
0.6             	7.21907260e-01	8.57487000e-03	7.04505920e-03	8.14837190e-03	0.00000000e+00
0.605           	1.67052380e-01	8.51862730e-03	7.00657690e-03	9.35330770e-03	0.00000000e+00
0.61            	2.09670780e-01	8.46343920e-03	6.96875720e-03	9.39284150e-03	0.00000000e+00
0.615           	1.29064310e-01	8.40921550e-03	6.93158310e-03	8.79246070e-03	0.00000000e+00
0.62            	1.20266530e-01	8.35591220e-03	6.89503770e-03	1.04948280e-02	0.00000000e+00
0.625           	1.20546250e-01	8.30349630e-03	6.85908600e-03	1.15001700e-02	0.00000000e+00
0.63            	5.66904310e-01	8.25194780e-03	6.82375060e-03	7.76893710e-03	0.00000000e+00
0.635           	2.21546630e-01	8.20066850e-03	6.78900320e-03	4.67003380e-03	0.00000000e+00
0.64            	1.79980310e-01	8.15020890e-03	6.75482500e-03	1.02178980e-02	0.00000000e+00
0.645           	1.02739810e-01	8.10048630e-03	6.72120050e-03	1.01153330e-02	0.00000000e+00
0.65            	2.48065260e-01	8.05153960e-03	6.68823490e-03	4.58725460e-03	0.00000000e+00
0.655           	2.88478570e-01	8.00336900e-03	6.65589120e-03	6.86945690e-03	0.00000000e+00
0.66            	3.71670440e-01	7.95596270e-03	6.62405830e-03	6.79500700e-03	0.00000000e+00
0.665           	1.28701720e-01	7.90930540e-03	6.59272390e-03	8.24883200e-03	0.00000000e+00
0.67            	1.86469130e-01	7.86319250e-03	6.56187580e-03	8.37912560e-03	0.00000000e+00
0.675           	1.51576300e-01	7.81795400e-03	6.53136300e-03	6.45316660e-03	0.00000000e+00
0.68            	3.26747600e-01	7.77356560e-03	6.50111610e-03	7.11761100e-03	0.00000000e+00
0.685           	2.79638790e-01	7.72979690e-03	6.47129040e-03	6.89527270e-03	0.00000000e+00
0.69            	1.78699530e-01	7.68667610e-03	6.44190020e-03	7.81883460e-03	0.00000000e+00
0.695           	5.57693760e-01	7.64420260e-03	6.41294340e-03	6.08525580e-03	0.00000000e+00
0.7             	1.87205970e-01	7.60244270e-03	6.38441240e-03	5.60756950e-03	0.00000000e+00
0.705           	1.56420900e-01	7.56124490e-03	6.35629830e-03	4.50718460e-03	0.00000000e+00
0.71            	1.86086530e-01	7.52063970e-03	6.32856220e-03	6.68309730e-03	0.00000000e+00
0.715           	6.16070070e-01	7.48062840e-03	6.30088750e-03	3.86934870e-03	0.00000000e+00
0.72            	1.27774850e-01	7.44120300e-03	6.27360770e-03	8.38296340e-03	0.00000000e+00
0.725           	4.81104950e-01	7.40235280e-03	6.24671380e-03	7.14606560e-03	0.00000000e+00
0.73            	1.31652970e-01	7.36391760e-03	6.22019710e-03	6.90417420e-03	0.00000000e+00
0.735           	1.90344870e-01	7.32623720e-03	6.19404900e-03	7.08814000e-03	0.00000000e+00
0.74            	5.94689230e-01	7.28907100e-03	6.16826130e-03	5.64216940e-03	0.00000000e+00
0.745           	1.67791190e-01	7.25242330e-03	6.14278400e-03	6.35272820e-03	0.00000000e+00
0.75            	2.32862730e-01	7.21629080e-03	6.11768290e-03	5.89470260e-03	0.00000000e+00
0.755           	1.67437890e-01	7.18066530e-03	6.09292900e-03	5.85221140e-03	0.00000000e+00
0.76            	1.63404310e-01	7.14553730e-03	6.06850790e-03	5.71896120e-03	0.00000000e+00
0.765           	1.06324360e-01	7.11089700e-03	6.04440990e-03	7.42271700e-03	0.00000000e+00
0.77            	1.26846230e-01	7.07673500e-03	6.02062730e-03	6.82365230e-03	0.00000000e+00
0.775           	1.11913980e-01	7.04304180e-03	5.99715290e-03	5.46871320e-03	0.00000000e+00
0.78            	1.63019460e-01	7.00969230e-03	5.97398000e-03	6.76913120e-03	0.00000000e+00
0.785           	1.39052440e-01	6.97642840e-03	5.95110200e-03	7.35555050e-03	0.00000000e+00
0.79            	1.09459870e-01	6.94354990e-03	5.92851250e-03	7.08065040e-03	0.00000000e+00
0.795           	1.44039540e-01	6.91116390e-03	5.90620540e-03	4.33698240e-03	0.00000000e+00
0.8             	1.43275550e-01	6.87922650e-03	5.88417470e-03	6.50957290e-03	0.00000000e+00
0.805           	1.62065360e-01	6.84771770e-03	5.86241440e-03	6.29002540e-03	0.00000000e+00
0.81            	1.62238010e-01	6.81662680e-03	5.84095560e-03	4.29298290e-03	0.00000000e+00
0.815           	2.17264030e-01	6.78583770e-03	5.81964370e-03	4.58072310e-03	0.00000000e+00
0.82            	4.61307740e-01	6.75509580e-03	5.79863940e-03	5.02236290e-03	0.00000000e+00
0.825           	8.23747800e-02	6.72475250e-03	5.77790110e-03	3.87398510e-03	0.00000000e+00
0.83            	2.11833510e-01	6.69480050e-03	5.75741190e-03	4.46787350e-03	0.00000000e+00
0.835           	1.21204600e-01	6.66523270e-03	5.73716270e-03	5.33280740e-03	0.00000000e+00
0.84            	1.53123250e-01	6.63604180e-03	5.71714720e-03	6.01665120e-03	0.00000000e+00
0.845           	1.94113040e-01	6.60722090e-03	5.69736030e-03	5.31027200e-03	0.00000000e+00
0.85            	3.14893220e-01	6.57876330e-03	5.67779700e-03	6.88287790e-03	0.00000000e+00
0.855           	1.64516700e-01	6.55066220e-03	5.65845270e-03	8.10298670e-03	0.00000000e+00
0.86            	1.18677910e-01	6.52285100e-03	5.63932300e-03	4.47320010e-03	0.00000000e+00
0.865           	1.48432400e-01	6.49543150e-03	5.62040330e-03	5.09288940e-03	0.00000000e+00
0.87            	5.24183440e-01	6.46836480e-03	5.60168960e-03	5.69264860e-03	0.00000000e+00
0.875           	1.44825710e-01	6.44163410e-03	5.58317750e-03	5.15667110e-03	0.00000000e+00
0.88            	2.32281100e-01	6.41523090e-03	5.56490560e-03	5.57805420e-03	0.00000000e+00
0.885           	9.58201780e-02	6.38914790e-03	5.54679640e-03	4.32260790e-03	0.00000000e+00
0.89            	1.22235260e-01	6.36337860e-03	5.52886660e-03	5.57761490e-03	0.00000000e+00
0.895           	2.19929610e-01	6.33791730e-03	5.51115040e-03	4.57608850e-03	0.00000000e+00
0.9             	1.15988430e-01	6.31275910e-03	5.49359250e-03	4.14316960e-03	0.00000000e+00
0.905           	1.18146240e-01	6.28789790e-03	5.47620540e-03	5.66432490e-03	0.00000000e+00
0.91            	1.87227600e-01	6.26332840e-03	5.45899080e-03	4.29207360e-03	0.00000000e+00
0.915           	1.23193590e-01	6.23904530e-03	5.44175760e-03	5.30111490e-03	0.00000000e+00
0.92            	1.12181640e-01	6.21504370e-03	5.42463450e-03	4.67196210e-03	0.00000000e+00
0.925           	2.11217400e-01	6.19131650e-03	5.40755860e-03	5.13638860e-03	0.00000000e+00
0.93            	1.10347770e-01	6.16785960e-03	5.39073430e-03	4.68712330e-03	0.00000000e+00
0.935           	1.54325390e-01	6.14471730e-03	5.37410000e-03	5.78340130e-03	0.00000000e+00
0.94            	4.84488680e-01	6.12183820e-03	5.35763350e-03	3.87500710e-03	0.00000000e+00
0.945           	6.70710100e-01	6.09917430e-03	5.34132510e-03	5.25013720e-03	0.00000000e+00
0.95            	3.95077820e-01	6.07675040e-03	5.32515230e-03	5.13797610e-03	0.00000000e+00
0.955           	1.83841100e-01	6.05443610e-03	5.30890730e-03	5.85019500e-03	0.00000000e+00
0.96            	2.58963590e-01	6.03247310e-03	5.29281130e-03	4.06888310e-03	0.00000000e+00
0.965           	2.08447610e-01	6.01078640e-03	5.27690980e-03	5.84162390e-03	0.00000000e+00
0.97            	2.54117260e-01	5.98934830e-03	5.26111720e-03	4.44427720e-03	0.00000000e+00
0.975           	2.08071120e-01	5.96814660e-03	5.24545350e-03	4.39107370e-03	0.00000000e+00
0.98            	1.32283940e-01	5.94717480e-03	5.22995920e-03	4.07667580e-03	0.00000000e+00
0.985           	3.51958210e-01	5.92642880e-03	5.21457350e-03	4.44353250e-03	0.00000000e+00
0.99            	1.43727420e-01	5.90590400e-03	5.19931160e-03	5.93236460e-03	0.00000000e+00
0.995           	1.27890660e-01	5.88564520e-03	5.18417690e-03	5.10443670e-03	0.00000000e+00
1               	1.81534920e-01	5.86554490e-03	5.16916870e-03	5.09909770e-03	0.00000000e+00
1.005           	3.19934640e-01	5.84533580e-03	5.15431070e-03	4.73312250e-03	0.00000000e+00
1.01            	1.96529400e-01	5.82533350e-03	5.13955720e-03	4.01560510e-03	0.00000000e+00
1.015           	1.40304590e-01	5.80557390e-03	5.12491810e-03	4.36659470e-03	0.00000000e+00
1.02            	2.49866490e-01	5.78601840e-03	5.11039510e-03	5.01710390e-03	0.00000000e+00
1.025           	2.69161880e-01	5.76662960e-03	5.09598740e-03	4.76370520e-03	0.00000000e+00
1.03            	4.92940160e-01	5.74742700e-03	5.08169330e-03	4.53167320e-03	0.00000000e+00
1.035           	3.21297270e-01	5.72841470e-03	5.06751070e-03	3.89936590e-03	0.00000000e+00
1.04            	2.63892160e-01	5.70934920e-03	5.05343750e-03	4.00125010e-03	0.00000000e+00
1.045           	1.11944220e-01	5.69040700e-03	5.03947190e-03	3.74481230e-03	0.00000000e+00
1.05            	2.91069150e-01	5.67165260e-03	5.02561160e-03	4.28238970e-03	0.00000000e+00
1.055           	1.75559680e-01	5.65308230e-03	5.01176040e-03	4.35360770e-03	0.00000000e+00
1.06            	1.74207110e-01	5.63469290e-03	4.99807770e-03	5.67303870e-03	0.00000000e+00
1.065           	1.29524900e-01	5.61648220e-03	4.98451690e-03	4.18688210e-03	0.00000000e+00
1.07            	1.95059730e-01	5.59844830e-03	4.97110080e-03	4.39996040e-03	0.00000000e+00
1.075           	1.67490500e-01	5.58058780e-03	4.95775500e-03	3.17080910e-03	0.00000000e+00
1.08            	2.81278400e-01	5.56291880e-03	4.94449490e-03	3.80841470e-03	0.00000000e+00
1.085           	1.69538950e-01	5.54528730e-03	4.93132420e-03	4.30107480e-03	0.00000000e+00
1.09            	1.91396800e-01	5.52790410e-03	4.91824310e-03	4.23787390e-03	0.00000000e+00
1.095           	1.22383270e-01	5.51071050e-03	4.90527900e-03	3.61596460e-03	0.00000000e+00
1.1             	1.34773840e-01	5.49368530e-03	4.89238190e-03	3.51341500e-03	0.00000000e+00
1.105           	3.63739370e-01	5.47681980e-03	4.87956360e-03	3.32845470e-03	0.00000000e+00
1.11            	1.69562780e-01	5.46017240e-03	4.86682700e-03	2.68376520e-03	0.00000000e+00
1.115           	1.82742910e-01	5.44362800e-03	4.85417200e-03	2.04690180e-03	0.00000000e+00
1.12            	1.72091240e-01	5.42721680e-03	4.84159770e-03	2.66620970e-03	0.00000000e+00
1.125           	2.11879440e-01	5.41094720e-03	4.82910270e-03	2.66065000e-03	0.00000000e+00
1.13            	5.16993230e-01	5.39482040e-03	4.81668550e-03	3.27001620e-03	0.00000000e+00
1.135           	1.87397710e-01	5.37883510e-03	4.80434480e-03	3.32413670e-03	0.00000000e+00
1.14            	1.37162720e-01	5.36298960e-03	4.79207900e-03	3.04947960e-03	0.00000000e+00
1.145           	3.77199070e-01	5.34730250e-03	4.77988690e-03	3.51540760e-03	0.00000000e+00
1.15            	2.70030890e-01	5.33173350e-03	4.76766170e-03	4.05478820e-03	0.00000000e+00
1.155           	1.07338100e-01	5.31629160e-03	4.75558130e-03	3.54818180e-03	0.00000000e+00
1.16            	3.41455820e-01	5.30097870e-03	4.74359500e-03	3.00218990e-03	0.00000000e+00
1.165           	1.27388150e-01	5.28579480e-03	4.73172920e-03	3.27055910e-03	0.00000000e+00
1.17            	4.86214120e-01	5.27073790e-03	4.71990230e-03	2.37185640e-03	0.00000000e+00
1.175           	1.61602020e-01	5.25580610e-03	4.70813170e-03	4.05354280e-03	0.00000000e+00
1.18            	1.85662190e-01	5.24099710e-03	4.69642260e-03	3.25210500e-03	0.00000000e+00
1.185           	3.42730810e-01	5.22630910e-03	4.68477570e-03	2.63722610e-03	0.00000000e+00
1.19            	1.19395850e-01	5.21175530e-03	4.67319050e-03	3.65162980e-03	0.00000000e+00
1.195           	7.19374350e-01	5.19730690e-03	4.66169760e-03	3.07346790e-03	0.00000000e+00
1.2             	1.83913720e-01	5.18297000e-03	4.65024240e-03	3.26560610e-03	0.00000000e+00
1.205           	1.19702340e-01	5.16874510e-03	4.63883860e-03	2.82147570e-03	0.00000000e+00
1.21            	4.31680270e-01	5.15463130e-03	4.62748990e-03	3.02548730e-03	0.00000000e+00
1.215           	2.80845590e-01	5.14062700e-03	4.61613050e-03	3.08194950e-03	0.00000000e+00
1.22            	2.89794640e-01	5.12673050e-03	4.60472690e-03	3.50672980e-03	0.00000000e+00
1.225           	1.41964410e-01	5.11273460e-03	4.59337920e-03	2.74585950e-03	0.00000000e+00
1.23            	4.20363630e-01	5.09899830e-03	4.58208650e-03	3.25267550e-03	0.00000000e+00
1.235           	1.46904680e-01	5.08541550e-03	4.57084760e-03	2.90365330e-03	0.00000000e+00
1.24            	3.68273550e-01	5.07195000e-03	4.55966170e-03	3.26627260e-03	0.00000000e+00
1.245           	1.83804280e-01	5.05858880e-03	4.54852770e-03	2.92723760e-03	0.00000000e+00
1.25            	4.75662990e-01	5.04537650e-03	4.53737880e-03	3.39575750e-03	0.00000000e+00
1.255           	1.44228950e-01	5.03222270e-03	4.52627950e-03	3.40174320e-03	0.00000000e+00
1.26            	2.32537190e-01	5.01915070e-03	4.51513070e-03	3.00857330e-03	0.00000000e+00
1.265           	1.46871420e-01	5.00629210e-03	4.50403680e-03	2.96961040e-03	0.00000000e+00
1.27            	1.09612890e-01	4.99327610e-03	4.49299330e-03	4.01866850e-03	0.00000000e+00
1.275           	1.80941640e-01	4.98025080e-03	4.48199830e-03	3.34968870e-03	0.00000000e+00
1.28            	1.00273360e-01	4.96730590e-03	4.47105060e-03	3.69565170e-03	0.00000000e+00
1.285           	1.83773310e-01	4.95444670e-03	4.46014900e-03	3.17667530e-03	0.00000000e+00
1.29            	1.76260640e-01	4.94167430e-03	4.44929280e-03	3.35896520e-03	0.00000000e+00
1.295           	1.97650400e-01	4.92898820e-03	4.43851570e-03	3.05331880e-03	0.00000000e+00
1.3             	3.15007280e-01	4.91639840e-03	4.42775820e-03	2.95881620e-03	0.00000000e+00
1.305           	3.83013490e-01	4.90387270e-03	4.41703560e-03	2.87715280e-03	0.00000000e+00
1.31            	3.06066180e-01	4.89122400e-03	4.40635240e-03	2.85057920e-03	0.00000000e+00
1.315           	1.58835990e-01	4.87865730e-03	4.39570960e-03	2.67830660e-03	0.00000000e+00
1.32            	1.38851070e-01	4.86617190e-03	4.38510710e-03	2.85370640e-03	0.00000000e+00
1.325           	2.87479090e-01	4.85376660e-03	4.37454420e-03	3.17152430e-03	0.00000000e+00
1.33            	1.35813760e-01	4.84122600e-03	4.36402040e-03	4.06372450e-03	0.00000000e+00
1.335           	1.98085670e-01	4.82892160e-03	4.35346050e-03	2.92069590e-03	0.00000000e+00
1.34            	1.47778360e-01	4.81674580e-03	4.34298970e-03	2.93022640e-03	0.00000000e+00
1.345           	2.81612010e-01	4.80466200e-03	4.33257300e-03	3.44957770e-03	0.00000000e+00
1.35            	1.68022080e-01	4.79265730e-03	4.32219820e-03	3.40912610e-03	0.00000000e+00
1.355           	1.16514720e-01	4.78072670e-03	4.31186090e-03	1.93290860e-03	0.00000000e+00
1.36            	3.18413770e-01	4.76886770e-03	4.30155920e-03	3.12063720e-03	0.00000000e+00
1.365           	1.04249300e-01	4.75713030e-03	4.29129200e-03	2.60833350e-03	0.00000000e+00
1.37            	1.11157140e-01	4.74542430e-03	4.28105860e-03	2.38105550e-03	0.00000000e+00
1.375           	2.15450050e-01	4.73377340e-03	4.27085810e-03	1.48696740e-03	0.00000000e+00
1.38            	1.53346090e-01	4.72218510e-03	4.26069010e-03	2.05167100e-03	0.00000000e+00
1.385           	3.86341360e-01	4.71066070e-03	4.25055390e-03	2.24745690e-03	0.00000000e+00
1.39            	1.61281260e-01	4.69920030e-03	4.24044890e-03	2.45929320e-03	0.00000000e+00
1.395           	2.81368350e-01	4.68780330e-03	4.23041220e-03	3.00746050e-03	0.00000000e+00
1.4             	1.73844490e-01	4.67646850e-03	4.22037960e-03	2.37654000e-03	0.00000000e+00
1.405           	1.39973140e-01	4.66519500e-03	4.21036790e-03	2.11194270e-03	0.00000000e+00
1.41            	1.61188990e-01	4.65398160e-03	4.20038220e-03	2.03557630e-03	0.00000000e+00
1.415           	1.62810300e-01	4.64282740e-03	4.19042400e-03	2.54796160e-03	0.00000000e+00
1.42            	8.57219060e-02	4.63173120e-03	4.18049340e-03	2.81873050e-03	0.00000000e+00
1.425           	1.19713020e-01	4.62069230e-03	4.17059010e-03	2.92997410e-03	0.00000000e+00
1.43            	1.30974510e-01	4.60970940e-03	4.16071360e-03	2.47167570e-03	0.00000000e+00
1.435           	4.07903730e-01	4.59878180e-03	4.15086340e-03	2.47946410e-03	0.00000000e+00
1.44            	1.38272120e-01	4.58790850e-03	4.14103920e-03	2.68899890e-03	0.00000000e+00
1.445           	1.59035210e-01	4.57708840e-03	4.13129990e-03	2.76721180e-03	0.00000000e+00
1.45            	2.29119810e-01	4.56635390e-03	4.12154420e-03	2.78434670e-03	0.00000000e+00
1.455           	9.80156310e-02	4.55564740e-03	4.11179930e-03	2.95861300e-03	0.00000000e+00
1.46            	1.64360050e-01	4.54498390e-03	4.10207390e-03	2.65880790e-03	0.00000000e+00
1.465           	2.37453690e-01	4.53436770e-03	4.09237040e-03	3.25189000e-03	0.00000000e+00
1.47            	1.16850160e-01	4.52379960e-03	4.08268970e-03	3.24343260e-03	0.00000000e+00
1.475           	1.20205180e-01	4.51327810e-03	4.07290130e-03	2.55768310e-03	0.00000000e+00
1.48            	8.95940190e-02	4.50280370e-03	4.06322510e-03	2.74312930e-03	0.00000000e+00
1.485           	1.22690790e-01	4.49237560e-03	4.05360070e-03	3.52879060e-03	0.00000000e+00
1.49            	1.19233890e-01	4.48199350e-03	4.04404880e-03	3.11398810e-03	0.00000000e+00
1.495           	1.36561380e-01	4.47165650e-03	4.03449320e-03	3.79840260e-03	0.00000000e+00
1.5             	1.54286040e-01	4.46136380e-03	4.02495000e-03	3.34751210e-03	0.00000000e+00
1.505           	3.17130540e-01	4.45113590e-03	4.01542430e-03	3.60263680e-03	0.00000000e+00
1.51            	2.60232850e-01	4.44093490e-03	4.00591770e-03	3.10364550e-03	0.00000000e+00
1.515           	1.83296840e-01	4.43077070e-03	3.99643040e-03	3.09042190e-03	0.00000000e+00
1.52            	1.64850320e-01	4.42064600e-03	3.98696220e-03	2.41525320e-03	0.00000000e+00
1.525           	1.01861320e-01	4.41056120e-03	3.97751290e-03	3.21020510e-03	0.00000000e+00
1.53            	1.56712000e-01	4.40051660e-03	3.96813170e-03	3.17264190e-03	0.00000000e+00
1.535           	1.78039910e-01	4.39031830e-03	3.95875040e-03	2.51929980e-03	0.00000000e+00
1.54            	2.94467710e-01	4.38029680e-03	3.94936440e-03	3.11627220e-03	0.00000000e+00
1.545           	1.43346290e-01	4.37035850e-03	3.93998840e-03	2.37970520e-03	0.00000000e+00
1.55            	1.42783000e-01	4.36047210e-03	3.93062710e-03	3.28393800e-03	0.00000000e+00
1.555           	1.90378850e-01	4.35062680e-03	3.92128180e-03	2.74448380e-03	0.00000000e+00
1.56            	2.21893040e-01	4.34081850e-03	3.91195280e-03	2.27725630e-03	0.00000000e+00
1.565           	2.18283410e-01	4.33104560e-03	3.90264000e-03	2.56968200e-03	0.00000000e+00
1.57            	1.46740120e-01	4.32130700e-03	3.89334320e-03	2.24370220e-03	0.00000000e+00
1.575           	1.37522240e-01	4.31160200e-03	3.88407300e-03	2.94902530e-03	0.00000000e+00
1.58            	1.26387170e-01	4.30193010e-03	3.87481060e-03	2.46798080e-03	0.00000000e+00
1.585           	3.99646850e-01	4.29229050e-03	3.86556080e-03	2.65061050e-03	0.00000000e+00
1.59            	1.30594780e-01	4.28268260e-03	3.85628530e-03	2.15288900e-03	0.00000000e+00
1.595           	5.24108970e-01	4.27300160e-03	3.84695410e-03	2.92399750e-03	0.00000000e+00
1.6             	1.29535990e-01	4.26330700e-03	3.83764600e-03	2.93399850e-03	0.00000000e+00
1.605           	1.35655940e-01	4.25364380e-03	3.82834750e-03	2.27445310e-03	0.00000000e+00
1.61            	1.47214630e-01	4.24401150e-03	3.81906190e-03	3.03318090e-03	0.00000000e+00
1.615           	4.08894980e-01	4.23440940e-03	3.80979030e-03	2.64662520e-03	0.00000000e+00
1.62            	2.08671570e-01	4.22483590e-03	3.80033670e-03	2.23467850e-03	0.00000000e+00
1.625           	2.17136900e-01	4.21529080e-03	3.79103200e-03	2.06544920e-03	0.00000000e+00
1.63            	2.44294060e-01	4.20577410e-03	3.78178620e-03	2.69685590e-03	0.00000000e+00
1.635           	1.80810910e-01	4.19621220e-03	3.77247540e-03	1.76459780e-03	0.00000000e+00
1.64            	9.98944550e-02	4.18660820e-03	3.76317100e-03	2.33678910e-03	0.00000000e+00
1.645           	1.26211630e-01	4.17708270e-03	3.75388240e-03	1.69549830e-03	0.00000000e+00
1.65            	1.14003910e-01	4.16754990e-03	3.74460830e-03	2.18744940e-03	0.00000000e+00
1.655           	3.28301720e-01	4.15803300e-03	3.73534810e-03	2.03837810e-03	0.00000000e+00
1.66            	3.00505130e-01	4.14853950e-03	3.72615020e-03	1.75810370e-03	0.00000000e+00
1.665           	1.50621400e-01	4.13907160e-03	3.71693220e-03	1.54516600e-03	0.00000000e+00
1.67            	1.18102600e-01	4.12962950e-03	3.70771610e-03	1.66634380e-03	0.00000000e+00
1.675           	1.73162690e-01	4.12021280e-03	3.69850910e-03	1.56394390e-03	0.00000000e+00
1.68            	1.12379130e-01	4.11082140e-03	3.68931350e-03	1.75163890e-03	0.00000000e+00
1.685           	3.31138910e-01	4.10145470e-03	3.68013000e-03	1.24624640e-03	0.00000000e+00
1.69            	1.26891300e-01	4.09211220e-03	3.67095850e-03	2.04010000e-03	0.00000000e+00
1.695           	1.36985330e-01	4.08279370e-03	3.66179920e-03	1.45802120e-03	0.00000000e+00
1.7             	1.48150730e-01	4.07349850e-03	3.65265170e-03	2.02139640e-03	0.00000000e+00
1.705           	1.01102080e-01	4.06425780e-03	3.64359210e-03	1.51992500e-03	0.00000000e+00
1.71            	1.24976760e-01	4.05501810e-03	3.63453000e-03	1.63881660e-03	0.00000000e+00
1.715           	3.39316340e-01	4.04579240e-03	3.62522470e-03	2.51331620e-03	0.00000000e+00
1.72            	3.59215110e-01	4.03658520e-03	3.61606080e-03	3.03120750e-03	0.00000000e+00
1.725           	1.32523850e-01	4.02739850e-03	3.60695130e-03	2.43917760e-03	0.00000000e+00
1.73            	1.17685030e-01	4.01823200e-03	3.59792130e-03	2.82493780e-03	0.00000000e+00
1.735           	1.27810340e-01	4.00908690e-03	3.58886990e-03	2.40091880e-03	0.00000000e+00
1.74            	2.66065410e-01	3.99998340e-03	3.57981840e-03	2.26702660e-03	0.00000000e+00
1.745           	1.56326650e-01	3.99088470e-03	3.57077390e-03	3.24472130e-03	0.00000000e+00
1.75            	1.31916400e-01	3.98180070e-03	3.56173860e-03	3.52303920e-03	0.00000000e+00
1.755           	1.89904050e-01	3.97273420e-03	3.55271310e-03	2.50422440e-03	0.00000000e+00
1.76            	2.26317800e-01	3.96368610e-03	3.54369750e-03	3.34664650e-03	0.00000000e+00
1.765           	1.22475270e-01	3.95467050e-03	3.53469200e-03	2.77642930e-03	0.00000000e+00
1.77            	2.45499370e-01	3.94566280e-03	3.52569620e-03	3.26294090e-03	0.00000000e+00
1.775           	2.62947700e-01	3.93666960e-03	3.51671020e-03	3.48850000e-03	0.00000000e+00
1.78            	2.00452260e-01	3.92770310e-03	3.50773380e-03	3.61842420e-03	0.00000000e+00
1.785           	1.07104070e-01	3.91874610e-03	3.49876690e-03	3.47326240e-03	0.00000000e+00
1.79            	1.61023080e-01	3.90980340e-03	3.48980930e-03	3.16064880e-03	0.00000000e+00
1.795           	1.37206230e-01	3.90088420e-03	3.48089490e-03	3.47001510e-03	0.00000000e+00
1.8             	1.83322100e-01	3.89198140e-03	3.47196640e-03	2.93740040e-03	0.00000000e+00
1.805           	4.13603020e-01	3.88308860e-03	3.46303920e-03	2.97636510e-03	0.00000000e+00
1.81            	1.87786130e-01	3.87421380e-03	3.45411840e-03	3.39971940e-03	0.00000000e+00
1.815           	1.30989930e-01	3.86535680e-03	3.44520570e-03	3.41190700e-03	0.00000000e+00
1.82            	1.60201860e-01	3.85619440e-03	3.43630140e-03	2.83813960e-03	0.00000000e+00
1.825           	4.16517950e-01	3.84726730e-03	3.42746970e-03	3.07406170e-03	0.00000000e+00
1.83            	1.35229030e-01	3.83842780e-03	3.41860240e-03	3.34225670e-03	0.00000000e+00
1.835           	3.72818790e-01	3.82962670e-03	3.40973630e-03	3.48380040e-03	0.00000000e+00
1.84            	4.39037530e-01	3.82084750e-03	3.40086860e-03	3.05079530e-03	0.00000000e+00
1.845           	1.11185120e-01	3.81208470e-03	3.39201130e-03	3.57752520e-03	0.00000000e+00
1.85            	1.16026800e-01	3.80333610e-03	3.38315750e-03	3.57473610e-03	0.00000000e+00
1.855           	4.29190810e-01	3.79460100e-03	3.37431420e-03	3.42492690e-03	0.00000000e+00
1.86            	1.93205830e-01	3.78587760e-03	3.36522640e-03	3.40170770e-03	0.00000000e+00
1.865           	1.11472810e-01	3.77716600e-03	3.35631720e-03	3.21222500e-03	0.00000000e+00
1.87            	3.83638970e-01	3.76846650e-03	3.34747300e-03	3.20258440e-03	0.00000000e+00
1.875           	3.54741360e-01	3.75977960e-03	3.33871690e-03	3.04251610e-03	0.00000000e+00
1.88            	3.54379520e-01	3.75110510e-03	3.32993300e-03	3.03427820e-03	0.00000000e+00
1.885           	1.32228300e-01	3.74244250e-03	3.32114520e-03	3.14019230e-03	0.00000000e+00
1.89            	9.32055000e-02	3.73379160e-03	3.31236120e-03	3.13606540e-03	0.00000000e+00
1.895           	1.05966290e-01	3.72515230e-03	3.30358370e-03	2.76937030e-03	0.00000000e+00
1.9             	1.11071120e-01	3.71652420e-03	3.29481340e-03	2.74725690e-03	0.00000000e+00
1.905           	2.60510530e-01	3.70790720e-03	3.28605070e-03	2.35464430e-03	0.00000000e+00
1.91            	1.82704830e-01	3.69930110e-03	3.27729540e-03	3.05588940e-03	0.00000000e+00
1.915           	2.18499710e-01	3.69070590e-03	3.26858740e-03	2.48780300e-03	0.00000000e+00
1.92            	1.62963170e-01	3.68212140e-03	3.25985950e-03	3.15471610e-03	0.00000000e+00
1.925           	1.36052280e-01	3.67354730e-03	3.25112990e-03	3.21123190e-03	0.00000000e+00
1.93            	1.68007490e-01	3.66498330e-03	3.24240460e-03	2.92783320e-03	0.00000000e+00
1.935           	2.31075100e-01	3.65642950e-03	3.23371340e-03	2.65011300e-03	0.00000000e+00
1.94            	1.70613590e-01	3.64788560e-03	3.22501000e-03	3.51063190e-03	0.00000000e+00
1.945           	8.46142360e-02	3.63935130e-03	3.21630750e-03	3.15546660e-03	0.00000000e+00
1.95            	9.53337780e-02	3.63082670e-03	3.20762960e-03	3.24489480e-03	0.00000000e+00
1.955           	1.03366210e-01	3.62231140e-03	3.19894470e-03	2.91419920e-03	0.00000000e+00
1.96            	2.14694660e-01	3.61380540e-03	3.19026220e-03	2.80702410e-03	0.00000000e+00
1.965           	1.60292430e-01	3.60530840e-03	3.18159910e-03	2.92276080e-03	0.00000000e+00
1.97            	8.72636030e-02	3.59682030e-03	3.17293310e-03	3.12240200e-03	0.00000000e+00
1.975           	8.28184370e-02	3.58834110e-03	3.16428080e-03	3.18586290e-03	0.00000000e+00
1.98            	3.13738330e-01	3.57987040e-03	3.15563490e-03	3.17438760e-03	0.00000000e+00
1.985           	1.12896980e-01	3.57140830e-03	3.14699370e-03	2.82564380e-03	0.00000000e+00
1.99            	2.87122980e-01	3.56295460e-03	3.13836030e-03	2.88512550e-03	0.00000000e+00
1.995           	1.16183250e-01	3.55450710e-03	3.12940250e-03	2.86745180e-03	0.00000000e+00
2               	1.29128740e-01	3.54606600e-03	3.12067430e-03	2.75290460e-03	0.00000000e+00
2.005           	1.45770500e-01	3.53763250e-03	3.11202730e-03	2.29412680e-03	0.00000000e+00
2.01            	2.37807800e-01	3.52912310e-03	3.10341070e-03	2.79258040e-03	0.00000000e+00
2.015           	2.69012450e-01	3.52061550e-03	3.09481140e-03	2.86891670e-03	0.00000000e+00
2.02            	1.24497450e-01	3.51211640e-03	3.08622120e-03	2.76324280e-03	0.00000000e+00
2.025           	1.46642440e-01	3.50362590e-03	3.07763750e-03	2.94306820e-03	0.00000000e+00
2.03            	1.23812850e-01	3.49514370e-03	3.06906170e-03	2.74830500e-03	0.00000000e+00
2.035           	1.66229800e-01	3.48666990e-03	3.06049330e-03	2.96258870e-03	0.00000000e+00
2.04            	1.90305600e-01	3.47820420e-03	3.05193190e-03	2.96861290e-03	0.00000000e+00
2.045           	9.27922220e-02	3.46974670e-03	3.04337860e-03	2.96666270e-03	0.00000000e+00
2.05            	2.29885480e-01	3.46129720e-03	3.03483030e-03	2.55411010e-03	0.00000000e+00
2.055           	7.63179700e-02	3.45278700e-03	3.02628950e-03	3.05699730e-03	0.00000000e+00
2.06            	1.20303870e-01	3.44426730e-03	3.01775570e-03	2.46266340e-03	0.00000000e+00
2.065           	3.15834460e-01	3.43575610e-03	3.00923010e-03	2.72451050e-03	0.00000000e+00
2.07            	1.21089960e-01	3.42725340e-03	3.00071060e-03	2.31452440e-03	0.00000000e+00
2.075           	1.34910500e-01	3.41875910e-03	2.99215100e-03	2.27082340e-03	0.00000000e+00
2.08            	1.80860700e-01	3.41027300e-03	2.98358370e-03	2.12774630e-03	0.00000000e+00
2.085           	1.10392610e-01	3.40179510e-03	2.97502380e-03	2.34864750e-03	0.00000000e+00
2.09            	1.83744340e-01	3.39332530e-03	2.96647160e-03	2.09274580e-03	0.00000000e+00
2.095           	2.93549940e-01	3.38486350e-03	2.95792690e-03	2.42777080e-03	0.00000000e+00
2.1             	2.86333960e-01	3.37640970e-03	2.94938980e-03	2.32846040e-03	0.00000000e+00
2.105           	1.47855230e-01	3.36796380e-03	2.94086030e-03	1.89363970e-03	0.00000000e+00
2.11            	2.25839000e-01	3.35952560e-03	2.93233840e-03	2.00590480e-03	0.00000000e+00
2.115           	2.12801850e-01	3.35109520e-03	2.92382410e-03	2.26628930e-03	0.00000000e+00
2.12            	1.63954310e-01	3.34267240e-03	2.91528020e-03	2.07368470e-03	0.00000000e+00
2.125           	1.48834890e-01	3.33425720e-03	2.90672180e-03	2.29965790e-03	0.00000000e+00
2.13            	9.54400620e-02	3.32584950e-03	2.89817190e-03	2.44939120e-03	0.00000000e+00
2.135           	1.30676300e-01	3.31744930e-03	2.88963150e-03	2.35910710e-03	0.00000000e+00
2.14            	1.35028860e-01	3.30905650e-03	2.88109870e-03	1.78253860e-03	0.00000000e+00
2.145           	1.03699280e-01	3.30067110e-03	2.87257390e-03	2.23831670e-03	0.00000000e+00
2.15            	1.39127990e-01	3.29229300e-03	2.86405740e-03	1.89316050e-03	0.00000000e+00
2.155           	1.42041250e-01	3.28392210e-03	2.85554910e-03	1.86286740e-03	0.00000000e+00
2.16            	1.27583540e-01	3.27555830e-03	2.84704910e-03	1.68689600e-03	0.00000000e+00
2.165           	2.92637560e-01	3.26720180e-03	2.83855640e-03	2.05436040e-03	0.00000000e+00
2.17            	1.64458920e-01	3.25885230e-03	2.83007280e-03	1.63060030e-03	0.00000000e+00
2.175           	2.07515010e-01	3.25050980e-03	2.82159780e-03	1.65333050e-03	0.00000000e+00
2.18            	1.70084230e-01	3.24217440e-03	2.81313230e-03	1.83834980e-03	0.00000000e+00
2.185           	1.61244580e-01	3.23384590e-03	2.80467450e-03	1.85258340e-03	0.00000000e+00
2.19            	1.30712610e-01	3.22552440e-03	2.79622490e-03	1.80296780e-03	0.00000000e+00
2.195           	9.08385960e-02	3.21720970e-03	2.78778370e-03	1.87028240e-03	0.00000000e+00
2.2             	1.59642620e-01	3.20890190e-03	2.77934980e-03	2.06811300e-03	0.00000000e+00
2.205           	1.83549050e-01	3.20060090e-03	2.77092620e-03	2.18430320e-03	0.00000000e+00
2.21            	1.28740810e-01	3.19230670e-03	2.76251050e-03	2.04014820e-03	0.00000000e+00
2.215           	2.05357490e-01	3.18401930e-03	2.75410330e-03	1.83450020e-03	0.00000000e+00
2.22            	1.40347470e-01	3.17573860e-03	2.74570340e-03	1.61880460e-03	0.00000000e+00
2.225           	2.03618900e-01	3.16746450e-03	2.73731280e-03	1.87108630e-03	0.00000000e+00
2.23            	2.46167290e-01	3.15919720e-03	2.72893090e-03	1.91911510e-03	0.00000000e+00
2.235           	1.08742180e-01	3.15093650e-03	2.72055780e-03	1.97656310e-03	0.00000000e+00
2.24            	1.38405260e-01	3.14268240e-03	2.71219430e-03	2.05574500e-03	0.00000000e+00
2.245           	1.45489500e-01	3.13443490e-03	2.70383880e-03	1.65583690e-03	0.00000000e+00
2.25            	1.06465460e-01	3.12619410e-03	2.69549170e-03	1.98798690e-03	0.00000000e+00
2.255           	1.59717230e-01	3.11795980e-03	2.68715320e-03	1.78506990e-03	0.00000000e+00
2.26            	1.20393950e-01	3.10973200e-03	2.67882340e-03	1.77440500e-03	0.00000000e+00
2.265           	3.29518070e-01	3.10151080e-03	2.67050230e-03	1.91324930e-03	0.00000000e+00
2.27            	3.21629910e-01	3.09329610e-03	2.66218890e-03	1.78113580e-03	0.00000000e+00
2.275           	1.43821010e-01	3.08508790e-03	2.65388600e-03	1.72759310e-03	0.00000000e+00
2.28            	1.44213120e-01	3.07688630e-03	2.64559150e-03	1.57640100e-03	0.00000000e+00
2.285           	1.04875210e-01	3.06869110e-03	2.63730570e-03	1.66221770e-03	0.00000000e+00
2.29            	2.62747150e-01	3.06050240e-03	2.62902860e-03	1.70671890e-03	0.00000000e+00
2.295           	1.95466430e-01	3.05232020e-03	2.62076040e-03	1.85994370e-03	0.00000000e+00
2.3             	1.52559940e-01	3.04414440e-03	2.61250010e-03	2.06184920e-03	0.00000000e+00
2.305           	3.14803630e-01	3.03597510e-03	2.60425050e-03	1.89381570e-03	0.00000000e+00
2.31            	1.12753720e-01	3.02781230e-03	2.59600930e-03	1.69168460e-03	0.00000000e+00
2.315           	1.96807150e-01	3.01965590e-03	2.58777700e-03	1.77692580e-03	0.00000000e+00
2.32            	1.09403560e-01	3.01150600e-03	2.57955370e-03	1.78688960e-03	0.00000000e+00
2.325           	1.92125600e-01	3.00336260e-03	2.57133930e-03	1.82322550e-03	0.00000000e+00
2.33            	2.33164930e-01	2.99522560e-03	2.56313410e-03	1.55373240e-03	0.00000000e+00
2.335           	1.33530260e-01	2.98709510e-03	2.55493790e-03	1.81643830e-03	0.00000000e+00
2.34            	1.36349890e-01	2.97897100e-03	2.54674990e-03	1.62099520e-03	0.00000000e+00
2.345           	8.75879490e-02	2.97085340e-03	2.53857270e-03	2.00812470e-03	0.00000000e+00
2.35            	1.92671550e-01	2.96274230e-03	2.53040430e-03	1.75107060e-03	0.00000000e+00
2.355           	1.49732400e-01	2.95463760e-03	2.52224490e-03	1.67191640e-03	0.00000000e+00
2.36            	2.32458220e-01	2.94653950e-03	2.51409370e-03	1.74967540e-03	0.00000000e+00
2.365           	1.93917400e-01	2.93844780e-03	2.50595340e-03	1.53010660e-03	0.00000000e+00
2.37            	4.32111530e-01	2.93036270e-03	2.49782200e-03	1.52780620e-03	0.00000000e+00
2.375           	1.02254650e-01	2.92228400e-03	2.48969970e-03	1.87710010e-03	0.00000000e+00
2.38            	1.30201180e-01	2.91421190e-03	2.48158580e-03	1.64150910e-03	0.00000000e+00
2.385           	8.51198530e-02	2.90614630e-03	2.47348290e-03	1.76491800e-03	0.00000000e+00
2.39            	1.08093500e-01	2.89808730e-03	2.46538800e-03	1.66400250e-03	0.00000000e+00
2.395           	1.29176830e-01	2.89003480e-03	2.45730400e-03	1.60806050e-03	0.00000000e+00
2.4             	1.69736860e-01	2.88198890e-03	2.44922900e-03	1.59648200e-03	0.00000000e+00
2.405           	1.76397440e-01	2.87394960e-03	2.44116250e-03	1.48146230e-03	0.00000000e+00
2.41            	1.09853950e-01	2.86591690e-03	2.43310600e-03	1.72911880e-03	0.00000000e+00
2.415           	1.67849980e-01	2.85789070e-03	2.42505930e-03	1.63039720e-03	0.00000000e+00
2.42            	1.51846550e-01	2.84987130e-03	2.41702320e-03	1.51051440e-03	0.00000000e+00
2.425           	1.51226780e-01	2.84185850e-03	2.40899520e-03	1.55424180e-03	0.00000000e+00
2.43            	3.56971710e-01	2.83385230e-03	2.40097720e-03	1.67990880e-03	0.00000000e+00
2.435           	1.09728180e-01	2.82585290e-03	2.39297000e-03	1.38556480e-03	0.00000000e+00
2.44            	3.02660170e-01	2.81786020e-03	2.38497200e-03	1.51316350e-03	0.00000000e+00
2.445           	1.24262510e-01	2.80987420e-03	2.37698350e-03	1.47133640e-03	0.00000000e+00
2.45            	1.87322720e-01	2.80189490e-03	2.36900380e-03	1.46384940e-03	0.00000000e+00
2.455           	2.53064990e-01	2.79392250e-03	2.36103450e-03	1.52239450e-03	0.00000000e+00
2.46            	1.35267290e-01	2.78595680e-03	2.35307520e-03	1.59136940e-03	0.00000000e+00
2.465           	1.75080260e-01	2.77799790e-03	2.34512680e-03	1.61734670e-03	0.00000000e+00
2.47            	1.21924180e-01	2.77004590e-03	2.33718680e-03	1.60199650e-03	0.00000000e+00
2.475           	1.59592980e-01	2.76210070e-03	2.32925710e-03	1.59884060e-03	0.00000000e+00
2.48            	7.04210610e-02	2.75416240e-03	2.32133840e-03	1.52059060e-03	0.00000000e+00
2.485           	2.13929790e-01	2.74623100e-03	2.31342910e-03	1.66208000e-03	0.00000000e+00
2.49            	9.48208790e-02	2.73830660e-03	2.30552960e-03	1.46018590e-03	0.00000000e+00
2.495           	2.58642120e-01	2.73038910e-03	2.29764010e-03	1.69354050e-03	0.00000000e+00
2.5             	1.33324110e-01	2.72247860e-03	2.28975980e-03	1.52354800e-03	0.00000000e+00
2.505           	2.47264160e-01	2.71457510e-03	2.28189110e-03	1.51078350e-03	0.00000000e+00
2.51            	1.59970760e-01	2.70667870e-03	2.27403200e-03	1.35116490e-03	0.00000000e+00
2.515           	1.98499250e-01	2.69878930e-03	2.26618300e-03	1.27362310e-03	0.00000000e+00
2.52            	2.91824300e-01	2.69090700e-03	2.25834410e-03	1.25664300e-03	0.00000000e+00
2.525           	8.45772920e-02	2.68303180e-03	2.25051460e-03	1.62328900e-03	0.00000000e+00
2.53            	2.00531320e-01	2.67516370e-03	2.24269590e-03	1.36667260e-03	0.00000000e+00
2.535           	3.76757210e-02	2.66730290e-03	2.23488760e-03	1.26423420e-03	0.00000000e+00
2.54            	8.91646090e-02	2.65944920e-03	2.22708970e-03	1.58055100e-03	0.00000000e+00
2.545           	2.42836970e-01	2.65160280e-03	2.21930210e-03	1.39517740e-03	0.00000000e+00
2.55            	2.78422640e-01	2.64376360e-03	2.21152570e-03	1.60687200e-03	0.00000000e+00
2.555           	1.17239800e-01	2.63593170e-03	2.20375910e-03	1.47853810e-03	0.00000000e+00
2.56            	1.42986930e-01	2.62810710e-03	2.19600190e-03	1.47460750e-03	0.00000000e+00
2.565           	1.13679850e-01	2.62028810e-03	2.18792840e-03	1.57624550e-03	0.00000000e+00
2.57            	1.33147630e-01	2.61247500e-03	2.18008530e-03	1.43165550e-03	0.00000000e+00
2.575           	2.83492700e-01	2.60466890e-03	2.17232690e-03	1.20401540e-03	0.00000000e+00
2.58            	1.42813410e-01	2.59687000e-03	2.16460030e-03	1.15427340e-03	0.00000000e+00
2.585           	1.26551490e-01	2.58907860e-03	2.15689610e-03	1.19678450e-03	0.00000000e+00
2.59            	7.98559710e-02	2.58129460e-03	2.14920180e-03	1.39353840e-03	0.00000000e+00
2.595           	1.34417270e-01	2.57351830e-03	2.14152430e-03	1.26918540e-03	0.00000000e+00
2.6             	2.41249830e-01	2.56574960e-03	2.13385310e-03	1.18361770e-03	0.00000000e+00
2.605           	1.80171730e-01	2.55798850e-03	2.12620000e-03	1.27266380e-03	0.00000000e+00
2.61            	1.43893200e-01	2.55023510e-03	2.11855110e-03	8.73319060e-04	0.00000000e+00
2.615           	9.64079730e-02	2.54248940e-03	2.11091080e-03	1.15349440e-03	0.00000000e+00
2.62            	1.15386530e-01	2.53475150e-03	2.10328060e-03	1.21201560e-03	0.00000000e+00
2.625           	2.06251710e-01	2.52702130e-03	2.09567320e-03	1.27291540e-03	0.00000000e+00
2.63            	2.23813000e-01	2.51926330e-03	2.08806830e-03	1.16158840e-03	0.00000000e+00
2.635           	7.64646580e-02	2.51151290e-03	2.08047150e-03	1.31420180e-03	0.00000000e+00
2.64            	7.78896410e-02	2.50377070e-03	2.07288460e-03	1.35012010e-03	0.00000000e+00
2.645           	1.12806800e-01	2.49603680e-03	2.06530820e-03	1.10633780e-03	0.00000000e+00
2.65            	1.35619920e-01	2.48831130e-03	2.05774270e-03	1.05536490e-03	0.00000000e+00
2.655           	1.28223270e-01	2.48059420e-03	2.05020530e-03	1.33749780e-03	0.00000000e+00
2.66            	4.15435380e-01	2.47288550e-03	2.04266730e-03	1.09762200e-03	0.00000000e+00
2.665           	2.40125410e-01	2.46518530e-03	2.03513640e-03	1.27394170e-03	0.00000000e+00
2.67            	1.41005270e-01	2.45749350e-03	2.02761520e-03	1.32985420e-03	0.00000000e+00
2.675           	1.19664640e-01	2.44981020e-03	2.02010460e-03	1.36372770e-03	0.00000000e+00
2.68            	1.21398400e-01	2.44213540e-03	2.01260480e-03	1.06981050e-03	0.00000000e+00
2.685           	1.96347740e-01	2.43445260e-03	2.00511610e-03	1.14801460e-03	0.00000000e+00
2.69            	2.99141120e-01	2.42676120e-03	1.99766260e-03	1.28800650e-03	0.00000000e+00
2.695           	1.19472780e-01	2.41907890e-03	1.99020400e-03	1.25153630e-03	0.00000000e+00
2.7             	2.27234370e-01	2.41140570e-03	1.98275110e-03	1.20537190e-03	0.00000000e+00
2.705           	4.29293920e-02	2.40374150e-03	1.97530750e-03	1.47227980e-03	0.00000000e+00
2.71            	1.14355650e-01	2.39608640e-03	1.96787450e-03	9.11969490e-04	0.00000000e+00
2.715           	9.70060940e-02	2.38844040e-03	1.96045240e-03	9.68824770e-04	0.00000000e+00
2.72            	1.04814190e-01	2.38080350e-03	1.95304140e-03	1.18021530e-03	0.00000000e+00
2.725           	4.61099890e-01	2.37317580e-03	1.94564160e-03	1.09730770e-03	0.00000000e+00
2.73            	9.24152750e-02	2.36555730e-03	1.93825300e-03	1.25469630e-03	0.00000000e+00
2.735           	1.53509870e-01	2.35794800e-03	1.93087560e-03	1.20709900e-03	0.00000000e+00
2.74            	2.02754570e-01	2.35034790e-03	1.92350950e-03	1.16702140e-03	0.00000000e+00
2.745           	7.95063280e-02	2.34275710e-03	1.91615470e-03	1.08276230e-03	0.00000000e+00
2.75            	1.25196410e-01	2.33517560e-03	1.90881120e-03	8.14701950e-04	0.00000000e+00
2.755           	1.07517960e-01	2.32760350e-03	1.90151420e-03	9.27528550e-04	0.00000000e+00
2.76            	1.09761070e-01	2.32004090e-03	1.89420490e-03	9.50716860e-04	0.00000000e+00
2.765           	1.16748780e-01	2.31248770e-03	1.88689910e-03	9.26603990e-04	0.00000000e+00
2.77            	4.58528080e-01	2.30494390e-03	1.87960210e-03	7.82486230e-04	0.00000000e+00
2.775           	3.09539700e-01	2.29740960e-03	1.87231550e-03	1.08067150e-03	0.00000000e+00
2.78            	1.34226760e-01	2.28988470e-03	1.86504010e-03	9.33298510e-04	0.00000000e+00
2.785           	6.34315230e-01	2.28236920e-03	1.85777590e-03	9.66820260e-04	0.00000000e+00
2.79            	1.19747760e-01	2.27486330e-03	1.85052310e-03	1.09247550e-03	0.00000000e+00
2.795           	7.99996930e-02	2.26736690e-03	1.84328170e-03	9.81992070e-04	0.00000000e+00
2.8             	1.99357050e-01	2.25988000e-03	1.83605180e-03	8.59725750e-04	0.00000000e+00
2.805           	1.99150630e-01	2.25240270e-03	1.82883330e-03	9.30607040e-04	0.00000000e+00
2.81            	2.27431170e-01	2.24493500e-03	1.82162630e-03	7.67444780e-04	0.00000000e+00
2.815           	2.08460740e-01	2.23747700e-03	1.81443080e-03	6.86480790e-04	0.00000000e+00
2.82            	2.53307260e-01	2.23002860e-03	1.80724680e-03	7.54162350e-04	0.00000000e+00
2.825           	1.96354330e-01	2.22258980e-03	1.80007430e-03	7.67915580e-04	0.00000000e+00
2.83            	2.48271890e-01	2.21516080e-03	1.79291330e-03	7.88900960e-04	0.00000000e+00
2.835           	1.26195290e-01	2.20774150e-03	1.78576390e-03	6.95957470e-04	0.00000000e+00
2.84            	1.10303990e-01	2.20033200e-03	1.77862600e-03	7.24431750e-04	0.00000000e+00
2.845           	1.82953190e-01	2.19293220e-03	1.77149970e-03	8.44563170e-04	0.00000000e+00
2.85            	9.44191100e-02	2.18554220e-03	1.76438500e-03	7.89770870e-04	0.00000000e+00
2.855           	1.43075470e-01	2.17816210e-03	1.75728180e-03	7.20575230e-04	0.00000000e+00
2.86            	1.19806950e-01	2.17079180e-03	1.75019030e-03	6.67874630e-04	0.00000000e+00
2.865           	2.09929140e-01	2.16343140e-03	1.74311030e-03	6.52099600e-04	0.00000000e+00
2.87            	1.86931210e-01	2.15608080e-03	1.73604200e-03	7.02132710e-04	0.00000000e+00
2.875           	2.34344240e-01	2.14874020e-03	1.72898530e-03	6.90014560e-04	0.00000000e+00
2.88            	1.65609700e-01	2.14140960e-03	1.72194030e-03	7.23950920e-04	0.00000000e+00
2.885           	2.46521060e-01	2.13408890e-03	1.71490690e-03	7.94533850e-04	0.00000000e+00
2.89            	1.06650860e-01	2.12677820e-03	1.70788330e-03	6.24134210e-04	0.00000000e+00
2.895           	1.15144750e-01	2.11918140e-03	1.70070530e-03	6.17433650e-04	0.00000000e+00
2.9             	1.05634010e-01	2.11179600e-03	1.69364190e-03	5.39631310e-04	0.00000000e+00
2.905           	1.72974240e-01	2.10448750e-03	1.68662460e-03	5.65364650e-04	0.00000000e+00
2.91            	1.13434640e-01	2.09721410e-03	1.67963070e-03	5.63241720e-04	0.00000000e+00
2.915           	1.01070850e-01	2.08995600e-03	1.67265700e-03	7.15558150e-04	0.00000000e+00
2.92            	2.64753480e-01	2.08270990e-03	1.66569370e-03	5.59560540e-04	0.00000000e+00
2.925           	9.70471300e-02	2.07547460e-03	1.65874180e-03	6.19664100e-04	0.00000000e+00
2.93            	1.78659780e-01	2.06825330e-03	1.65180170e-03	6.32317130e-04	0.00000000e+00
2.935           	1.28723250e-01	2.06103970e-03	1.64487350e-03	5.89632010e-04	0.00000000e+00
2.94            	3.62582010e-01	2.05383550e-03	1.63795720e-03	5.67175630e-04	0.00000000e+00
2.945           	2.54241160e-01	2.04664120e-03	1.63105300e-03	6.74424320e-04	0.00000000e+00
2.95            	1.08946920e-01	2.03946130e-03	1.62415920e-03	4.71409550e-04	0.00000000e+00
2.955           	1.46928940e-01	2.03228870e-03	1.61726470e-03	6.56194510e-04	0.00000000e+00
2.96            	1.87046210e-01	2.02512530e-03	1.61038840e-03	4.75102060e-04	0.00000000e+00
2.965           	1.16691520e-01	2.01797200e-03	1.60352030e-03	5.62687690e-04	0.00000000e+00
2.97            	1.37101190e-01	2.01082880e-03	1.59666290e-03	5.25985010e-04	0.00000000e+00
2.975           	1.52071950e-01	2.00369600e-03	1.58981740e-03	6.37436110e-04	0.00000000e+00
2.98            	1.44326720e-01	1.99657900e-03	1.58298380e-03	6.65918400e-04	0.00000000e+00
2.985           	1.12378840e-01	1.98946850e-03	1.57616240e-03	5.43906410e-04	0.00000000e+00
2.99            	7.78878960e-02	1.98236710e-03	1.56935310e-03	5.64640820e-04	0.00000000e+00
2.995           	4.03281390e-01	1.97527570e-03	1.56255590e-03	4.39171820e-04	0.00000000e+00
3               	4.57948250e-01	1.96819460e-03	1.55577100e-03	3.54166310e-04	0.00000000e+00
3.005           	1.23280000e-01	1.96112400e-03	1.54899820e-03	3.82812560e-04	0.00000000e+00
3.01            	5.57592330e-01	1.95406370e-03	1.54223750e-03	2.39808930e-04	0.00000000e+00
3.015           	7.53389770e-02	1.94701400e-03	1.53548910e-03	4.59262400e-04	0.00000000e+00
3.02            	1.02335330e-01	1.93997480e-03	1.52875270e-03	3.24966230e-04	0.00000000e+00
3.025           	2.39635850e-01	1.93295330e-03	1.52202860e-03	4.84238400e-04	0.00000000e+00
3.03            	1.06942380e-01	1.92593740e-03	1.51532480e-03	4.45446420e-04	0.00000000e+00
3.035           	2.56322430e-01	1.91893030e-03	1.50862770e-03	3.21831760e-04	0.00000000e+00
3.04            	5.89729050e-02	1.91193330e-03	1.50194080e-03	2.60854010e-04	0.00000000e+00
3.045           	1.41632770e-01	1.90494660e-03	1.49526540e-03	3.03130200e-04	0.00000000e+00
3.05            	1.60589990e-01	1.89797050e-03	1.48860190e-03	3.08008330e-04	0.00000000e+00
3.055           	1.94182910e-01	1.89100500e-03	1.48195050e-03	2.81607450e-04	0.00000000e+00
3.06            	1.11518320e-01	1.88405020e-03	1.47531120e-03	4.08619160e-04	0.00000000e+00
3.065           	1.15407540e-01	1.87710600e-03	1.46868400e-03	3.37738210e-04	0.00000000e+00
3.07            	1.64772100e-01	1.87017250e-03	1.46206890e-03	2.07592200e-04	0.00000000e+00
3.075           	1.25582860e-01	1.86324960e-03	1.45546590e-03	4.73087650e-04	0.00000000e+00
3.08            	1.31838790e-01	1.85633750e-03	1.44887500e-03	2.16277350e-04	0.00000000e+00
3.085           	1.96154880e-01	1.84943610e-03	1.44229630e-03	4.07498350e-04	0.00000000e+00
3.09            	1.38231570e-01	1.84254540e-03	1.43572960e-03	2.27597530e-04	0.00000000e+00
3.095           	9.12944710e-02	1.83567530e-03	1.42917500e-03	4.00509590e-04	0.00000000e+00
3.1             	2.13639570e-01	1.82880910e-03	1.42263240e-03	3.11088200e-04	0.00000000e+00
3.105           	9.02627760e-02	1.82195140e-03	1.41610200e-03	3.30177430e-04	0.00000000e+00
3.11            	9.76090090e-02	1.81510370e-03	1.40958360e-03	3.25424250e-04	0.00000000e+00
3.115           	1.23563710e-01	1.80826660e-03	1.40307730e-03	2.15826950e-04	0.00000000e+00
3.12            	6.67655030e-02	1.80144020e-03	1.39658300e-03	2.70446840e-04	0.00000000e+00
3.125           	1.55987140e-01	1.79462460e-03	1.39010080e-03	1.91208970e-04	0.00000000e+00
3.13            	1.86090850e-01	1.78781980e-03	1.38367770e-03	1.99682440e-04	0.00000000e+00
3.135           	1.07299580e-01	1.78102610e-03	1.37723500e-03	2.35871150e-04	0.00000000e+00
3.14            	2.92090410e-01	1.77424330e-03	1.37079360e-03	2.77789530e-04	0.00000000e+00
3.145           	1.30016130e-01	1.76747140e-03	1.36436070e-03	3.07465360e-04	0.00000000e+00
3.15            	7.86120770e-02	1.76071040e-03	1.35793860e-03	3.38663800e-04	0.00000000e+00
3.155           	1.55882400e-01	1.75396030e-03	1.35152810e-03	2.80464550e-04	0.00000000e+00
3.16            	3.57241400e-01	1.74722120e-03	1.34512940e-03	2.66181200e-04	0.00000000e+00
3.165           	7.29967940e-02	1.74049290e-03	1.33874260e-03	2.33623890e-04	0.00000000e+00
3.17            	3.33134020e-01	1.73377550e-03	1.33236780e-03	3.28340590e-04	0.00000000e+00
3.175           	1.79604560e-01	1.72706920e-03	1.32600500e-03	3.39460260e-04	0.00000000e+00
3.18            	2.78566230e-01	1.72037370e-03	1.31965400e-03	3.16478150e-04	0.00000000e+00
3.185           	1.97078570e-01	1.71368920e-03	1.31331510e-03	3.73574160e-04	0.00000000e+00
3.19            	2.26307880e-01	1.70701570e-03	1.30698800e-03	3.83501060e-04	0.00000000e+00
3.195           	1.20279110e-01	1.70035320e-03	1.30067290e-03	3.30149160e-04	0.00000000e+00
3.2             	9.27692630e-02	1.69370160e-03	1.29436970e-03	3.22963170e-04	0.00000000e+00
3.205           	1.57015490e-01	1.68706110e-03	1.28807840e-03	2.91566800e-04	0.00000000e+00
3.21            	1.68834390e-01	1.68044540e-03	1.28179890e-03	3.11108620e-04	0.00000000e+00
3.215           	2.08557650e-01	1.67383120e-03	1.27553140e-03	2.88892350e-04	0.00000000e+00
3.22            	2.86409530e-01	1.66722480e-03	1.26927580e-03	3.05955980e-04	0.00000000e+00
3.225           	1.12010850e-01	1.66062830e-03	1.26303200e-03	3.77694360e-04	0.00000000e+00
3.23            	4.20074360e-01	1.65404250e-03	1.25680000e-03	3.15532100e-04	0.00000000e+00
3.235           	5.12398250e-01	1.64746770e-03	1.25058000e-03	3.64738270e-04	0.00000000e+00
3.24            	2.43119260e-01	1.64090390e-03	1.24437170e-03	3.27153230e-04	0.00000000e+00
3.245           	5.32907160e-01	1.63435120e-03	1.23817530e-03	3.39571690e-04	0.00000000e+00
3.25            	3.39626910e-01	1.62780960e-03	1.23199070e-03	3.48281460e-04	0.00000000e+00
3.255           	7.49013630e-02	1.62127900e-03	1.22581790e-03	3.42621940e-04	0.00000000e+00
3.26            	1.23630280e-01	1.61475950e-03	1.21965680e-03	3.48943950e-04	0.00000000e+00
3.265           	1.19900600e-01	1.60825120e-03	1.21350760e-03	3.68828550e-04	0.00000000e+00
3.27            	2.61505970e-01	1.60175390e-03	1.20737010e-03	3.56823810e-04	0.00000000e+00
3.275           	1.60767770e-01	1.59526770e-03	1.20124440e-03	3.88876150e-04	0.00000000e+00
3.28            	1.22225300e-01	1.58879270e-03	1.19513040e-03	3.60881810e-04	0.00000000e+00
3.285           	4.49975570e-01	1.58232880e-03	1.18902820e-03	2.69905680e-04	0.00000000e+00
3.29            	1.15352470e-01	1.57587610e-03	1.18293770e-03	2.90679970e-04	0.00000000e+00
3.295           	1.52376040e-01	1.56943450e-03	1.17685880e-03	2.87352300e-04	0.00000000e+00
3.3             	2.06174060e-01	1.56300400e-03	1.17079170e-03	2.98849970e-04	0.00000000e+00
3.305           	2.71482400e-01	1.55658470e-03	1.16473630e-03	2.49860840e-04	0.00000000e+00
3.31            	9.97631680e-02	1.55017650e-03	1.15869250e-03	3.18662450e-04	0.00000000e+00
3.315           	1.96705490e-01	1.54377950e-03	1.15266040e-03	3.42887860e-04	0.00000000e+00
3.32            	1.01833510e-01	1.53739370e-03	1.14663990e-03	3.13974900e-04	0.00000000e+00
3.325           	3.67525460e-01	1.53101900e-03	1.14063100e-03	4.44237700e-04	0.00000000e+00
3.33            	1.07770930e-01	1.52465550e-03	1.13463380e-03	3.21671590e-04	0.00000000e+00
3.335           	1.97775240e-01	1.51830320e-03	1.12864810e-03	3.63547170e-04	0.00000000e+00
3.34            	1.04933290e-01	1.51196210e-03	1.12267400e-03	3.84466940e-04	0.00000000e+00
3.345           	3.36175380e-01	1.50563220e-03	1.11671160e-03	3.99150960e-04	0.00000000e+00
3.35            	2.28106160e-01	1.49930400e-03	1.11076060e-03	3.81243520e-04	0.00000000e+00
3.355           	1.40276720e-01	1.49299790e-03	1.10485030e-03	3.95683170e-04	0.00000000e+00
3.36            	2.69310070e-01	1.48670660e-03	1.09893190e-03	4.89945700e-04	0.00000000e+00
3.365           	9.03554730e-02	1.48042760e-03	1.09301860e-03	3.91921990e-04	0.00000000e+00
3.37            	1.20557600e-01	1.47416010e-03	1.08711450e-03	3.77452510e-04	0.00000000e+00
3.375           	3.16924170e-01	1.46790430e-03	1.08122110e-03	3.25869870e-04	0.00000000e+00
3.38            	1.05142250e-01	1.46165930e-03	1.07533900e-03	2.66309860e-04	0.00000000e+00
3.385           	1.38429560e-01	1.45542540e-03	1.06946820e-03	3.60030290e-04	0.00000000e+00
3.39            	2.16190230e-01	1.44920250e-03	1.06360890e-03	3.51735100e-04	0.00000000e+00
3.395           	1.41013820e-01	1.44299030e-03	1.05776090e-03	3.35046900e-04	0.00000000e+00
3.4             	4.06074680e-01	1.43678990e-03	1.05192440e-03	2.82989630e-04	0.00000000e+00
3.405           	1.50851960e-01	1.43060050e-03	1.04609920e-03	3.36575860e-04	0.00000000e+00
3.41            	2.21884910e-01	1.42442210e-03	1.04028540e-03	3.51149470e-04	0.00000000e+00
3.415           	1.36707340e-01	1.41825480e-03	1.03448300e-03	3.81610870e-04	0.00000000e+00
3.42            	2.03818800e-01	1.41209860e-03	1.02869190e-03	4.26967880e-04	0.00000000e+00
3.425           	3.51698110e-01	1.40595360e-03	1.02291220e-03	3.54779190e-04	0.00000000e+00
3.43            	1.29583320e-01	1.39981930e-03	1.01714380e-03	3.05161820e-04	0.00000000e+00
3.435           	1.85869760e-01	1.39369640e-03	1.01138670e-03	3.16727320e-04	0.00000000e+00
3.44            	1.78933570e-01	1.38758470e-03	1.00564080e-03	3.09502380e-04	0.00000000e+00
3.445           	1.40636730e-01	1.38148420e-03	9.99906270e-04	3.91662680e-04	0.00000000e+00
3.45            	9.87169630e-02	1.37539480e-03	9.94182970e-04	2.90415520e-04	0.00000000e+00
3.455           	2.17833440e-01	1.36931700e-03	9.88470900e-04	3.29112990e-04	0.00000000e+00
3.46            	1.38225280e-01	1.36325010e-03	9.82770050e-04	4.04614480e-04	0.00000000e+00
3.465           	3.10103840e-01	1.35719380e-03	9.77080420e-04	2.81450590e-04	0.00000000e+00
3.47            	1.14765730e-01	1.35114930e-03	9.71401970e-04	2.94966510e-04	0.00000000e+00
3.475           	2.30052210e-01	1.34511540e-03	9.65734700e-04	2.80852710e-04	0.00000000e+00
3.48            	1.23465100e-01	1.33909320e-03	9.60078590e-04	2.61908710e-04	0.00000000e+00
3.485           	2.05371960e-01	1.33308160e-03	9.54433620e-04	3.42868350e-04	0.00000000e+00
3.49            	1.10901310e-01	1.32708170e-03	9.48799770e-04	2.46546280e-04	0.00000000e+00
3.495           	1.78002850e-01	1.32109230e-03	9.43177040e-04	2.23211630e-04	0.00000000e+00
3.5             	1.24894050e-01	1.31511470e-03	9.37565400e-04	2.49010420e-04	0.00000000e+00
3.505           	2.12081940e-01	1.30914770e-03	9.31964830e-04	2.21843300e-04	0.00000000e+00
3.51            	3.66598860e-01	1.30319200e-03	9.26375330e-04	2.53182260e-04	0.00000000e+00
3.515           	1.30787760e-01	1.29724760e-03	9.20796860e-04	2.30951490e-04	0.00000000e+00
3.52            	1.11369000e-01	1.29131460e-03	9.15229420e-04	2.82912080e-04	0.00000000e+00
3.525           	3.15434020e-01	1.28539230e-03	9.09672990e-04	2.85750120e-04	0.00000000e+00
3.53            	2.51518070e-01	1.27948120e-03	9.04127550e-04	1.79109570e-04	0.00000000e+00
3.535           	1.99524210e-01	1.27358130e-03	8.98593090e-04	2.25340370e-04	0.00000000e+00
3.54            	9.27681940e-02	1.26769300e-03	8.93069590e-04	1.92339700e-04	0.00000000e+00
3.545           	1.17310430e-01	1.26181560e-03	8.87557020e-04	2.71431380e-04	0.00000000e+00
3.55            	9.83549770e-02	1.25594880e-03	8.82055380e-04	1.69989870e-04	0.00000000e+00
3.555           	1.18556390e-01	1.25009380e-03	8.76564650e-04	2.43931360e-04	0.00000000e+00
3.56            	1.10545780e-01	1.24424980e-03	8.71084800e-04	2.31028540e-04	0.00000000e+00
3.565           	1.54548330e-01	1.23841690e-03	8.65615830e-04	2.54411430e-04	0.00000000e+00
3.57            	1.40571210e-01	1.23259470e-03	8.60157710e-04	2.19616920e-04	0.00000000e+00
3.575           	2.41621050e-01	1.22678420e-03	8.54710430e-04	1.48701850e-04	0.00000000e+00
3.58            	1.96335350e-01	1.22098470e-03	8.49273960e-04	1.92141100e-04	0.00000000e+00
3.585           	1.22662230e-01	1.21519600e-03	8.43848300e-04	1.82268990e-04	0.00000000e+00
3.59            	4.00109380e-01	1.20941860e-03	8.38433430e-04	2.89418340e-04	0.00000000e+00
3.595           	3.40340260e-01	1.20365270e-03	8.33029320e-04	2.64471930e-04	0.00000000e+00
3.6             	1.21042920e-01	1.19789750e-03	8.27635960e-04	1.57900540e-04	0.00000000e+00
3.605           	4.14264900e-01	1.19215380e-03	8.22253340e-04	1.61477310e-04	0.00000000e+00
3.61            	1.98935660e-01	1.18642080e-03	8.16881430e-04	1.96337870e-04	0.00000000e+00
3.615           	1.39919440e-01	1.18069940e-03	8.11520210e-04	2.34178730e-04	0.00000000e+00
3.62            	2.33413930e-01	1.17498860e-03	8.06169680e-04	2.61222230e-04	0.00000000e+00
3.625           	3.38341450e-01	1.16928910e-03	8.00829810e-04	3.36115380e-04	0.00000000e+00
3.63            	6.87703960e-02	1.16360100e-03	7.95500580e-04	2.65309420e-04	0.00000000e+00
3.635           	1.34196950e-01	1.15792360e-03	7.90181980e-04	1.92800480e-04	0.00000000e+00
3.64            	1.39858970e-01	1.15225740e-03	7.84873990e-04	3.17094410e-04	0.00000000e+00
3.645           	3.55407920e-01	1.14660270e-03	7.79576590e-04	4.11712500e-04	0.00000000e+00
3.65            	1.49560730e-01	1.14095890e-03	7.74289760e-04	3.29367520e-04	0.00000000e+00
3.655           	4.29204350e-01	1.13532610e-03	7.69013490e-04	1.96183540e-04	0.00000000e+00
3.66            	1.06442170e-01	1.12970410e-03	7.63747760e-04	2.04850560e-04	0.00000000e+00
3.665           	1.57420730e-01	1.12380730e-03	7.58492550e-04	1.84879470e-04	0.00000000e+00
3.67            	1.85875640e-01	1.11811290e-03	7.53247840e-04	3.45492230e-04	0.00000000e+00
3.675           	1.35774390e-01	1.11249690e-03	7.48013610e-04	1.40308920e-04	0.00000000e+00
3.68            	3.04696860e-01	1.10691080e-03	7.42789860e-04	2.90394230e-04	0.00000000e+00
3.685           	3.53319350e-01	1.10134630e-03	7.37576550e-04	1.09041640e-04	0.00000000e+00
3.69            	3.40825320e-01	1.09579200e-03	7.32373680e-04	2.59970400e-04	0.00000000e+00
3.695           	2.30131540e-01	1.09024850e-03	7.27181220e-04	2.04270760e-04	0.00000000e+00
3.7             	1.11180420e-01	1.08471590e-03	7.21999160e-04	2.22934380e-04	0.00000000e+00
3.705           	1.54485860e-01	1.07919980e-03	7.16827470e-04	2.04954050e-04	0.00000000e+00
3.71            	1.87607470e-01	1.07369100e-03	7.11666150e-04	1.40329140e-04	0.00000000e+00
3.715           	1.13573090e-01	1.06819210e-03	7.06515170e-04	1.64584550e-04	0.00000000e+00
3.72            	1.47584440e-01	1.06270380e-03	7.01374520e-04	2.23346250e-04	0.00000000e+00
3.725           	1.78621050e-01	1.05723320e-03	6.96244170e-04	2.79027390e-04	0.00000000e+00
3.73            	2.38631930e-01	1.05176900e-03	6.91124120e-04	1.79337580e-04	0.00000000e+00
3.735           	1.49837170e-01	1.04631420e-03	6.86014330e-04	1.92239810e-04	0.00000000e+00
3.74            	7.75136660e-02	1.04086990e-03	6.80914810e-04	2.43426090e-04	0.00000000e+00
3.745           	1.51413020e-01	1.03543650e-03	6.75825520e-04	1.36471350e-04	0.00000000e+00
3.75            	1.27802330e-01	1.03002280e-03	6.70746450e-04	1.61175380e-04	0.00000000e+00
3.755           	7.23442600e-02	1.02461410e-03	6.65677580e-04	2.00167840e-04	0.00000000e+00
3.76            	8.87402040e-02	1.01921450e-03	6.60618900e-04	2.79478930e-04	0.00000000e+00
3.765           	1.36189170e-01	1.01382510e-03	6.55570390e-04	1.93453900e-04	0.00000000e+00
3.77            	1.94736390e-01	1.00844660e-03	6.50532030e-04	2.97856620e-04	0.00000000e+00
3.775           	8.31549560e-02	1.00307900e-03	6.45503800e-04	1.58146840e-04	0.00000000e+00
3.78            	1.20269360e-01	9.97722380e-04	6.40485680e-04	2.44724680e-04	0.00000000e+00
3.785           	2.53835840e-01	9.92388100e-04	6.35477660e-04	2.85792490e-04	0.00000000e+00
3.79            	1.65610780e-01	9.87057030e-04	6.30479730e-04	1.58292590e-04	0.00000000e+00
3.795           	2.41506350e-01	9.81734350e-04	6.25491850e-04	2.73876810e-04	0.00000000e+00
3.8             	1.29470240e-01	9.76421790e-04	6.20514020e-04	1.83746250e-04	0.00000000e+00
3.805           	1.83858860e-01	9.71119920e-04	6.15546220e-04	2.85469950e-04	0.00000000e+00
3.81            	1.22549550e-01	9.65828930e-04	6.10588430e-04	3.10890670e-04	0.00000000e+00
3.815           	9.88124860e-02	9.60548880e-04	6.05640640e-04	3.63425870e-04	0.00000000e+00
3.82            	1.45553820e-01	9.55279770e-04	6.00702820e-04	2.96777870e-04	0.00000000e+00
3.825           	1.05879710e-01	9.50021620e-04	5.95774960e-04	2.94667730e-04	0.00000000e+00
3.83            	9.92164410e-02	9.44789330e-04	5.90857040e-04	3.04383070e-04	0.00000000e+00
3.835           	4.19429170e-01	9.39557770e-04	5.85949050e-04	3.54686530e-04	0.00000000e+00
3.84            	1.76841930e-01	9.34333750e-04	5.81050960e-04	3.45749080e-04	0.00000000e+00
3.845           	2.06151230e-01	9.29119530e-04	5.76162770e-04	3.45020800e-04	0.00000000e+00
3.85            	1.14692440e-01	9.23915860e-04	5.71284450e-04	3.68424310e-04	0.00000000e+00
3.855           	1.52777440e-01	9.18722980e-04	5.66415990e-04	3.37406180e-04	0.00000000e+00
3.86            	4.64691740e-01	9.13540980e-04	5.61557360e-04	3.29470670e-04	0.00000000e+00
3.865           	9.22457740e-02	9.08369870e-04	5.56708570e-04	4.29647800e-04	0.00000000e+00
3.87            	8.66636440e-02	9.03209650e-04	5.51869570e-04	4.80234760e-04	0.00000000e+00
3.875           	1.47844200e-01	8.98060320e-04	5.47040370e-04	3.91997740e-04	0.00000000e+00
3.88            	1.52699680e-01	8.92921880e-04	5.42220940e-04	3.27970030e-04	0.00000000e+00
3.885           	9.15683760e-02	8.87794320e-04	5.37411270e-04	4.10439400e-04	0.00000000e+00
3.89            	2.52895170e-01	8.82697720e-04	5.32611340e-04	3.94684550e-04	0.00000000e+00
3.895           	2.06704390e-01	8.77598290e-04	5.27821130e-04	4.05434070e-04	0.00000000e+00
3.9             	2.41134470e-01	8.72505150e-04	5.23040630e-04	4.32319120e-04	0.00000000e+00
3.905           	1.00927900e-01	8.67421350e-04	5.18269820e-04	3.77750410e-04	0.00000000e+00
3.91            	1.35870060e-01	8.62347900e-04	5.13508680e-04	3.07808570e-04	0.00000000e+00
3.915           	1.03132480e-01	8.57285110e-04	5.08757200e-04	4.41880170e-04	0.00000000e+00
3.92            	1.32943350e-01	8.52233110e-04	5.04015360e-04	4.84723630e-04	0.00000000e+00
3.925           	4.34618710e-01	8.47191920e-04	4.99283150e-04	3.44684350e-04	0.00000000e+00
3.93            	1.73433980e-01	8.42161540e-04	4.94560540e-04	4.69491040e-04	0.00000000e+00
3.935           	2.60599350e-01	8.37141970e-04	4.89847530e-04	5.70233360e-04	0.00000000e+00
3.94            	2.52769330e-01	8.32133210e-04	4.85144100e-04	5.39948410e-04	0.00000000e+00
3.945           	1.91517600e-01	8.27135250e-04	4.80450220e-04	5.11749120e-04	0.00000000e+00
3.95            	1.95896460e-01	8.22148080e-04	4.75765890e-04	5.72252050e-04	0.00000000e+00
3.955           	8.96715880e-02	8.17171700e-04	4.71091090e-04	5.57511670e-04	0.00000000e+00
3.96            	1.03937030e-01	8.12206090e-04	4.66425810e-04	6.20471240e-04	0.00000000e+00
3.965           	9.71521720e-02	8.07251260e-04	4.61770020e-04	5.43506690e-04	0.00000000e+00
3.97            	1.41835590e-01	8.02307190e-04	4.57123710e-04	6.41842850e-04	0.00000000e+00
3.975           	7.56166240e-02	7.97373870e-04	4.52486870e-04	5.83594990e-04	0.00000000e+00
3.98            	1.04961740e-01	7.92478190e-04	4.47859470e-04	3.80440610e-04	0.00000000e+00
3.985           	2.45840990e-01	7.87574980e-04	4.43241520e-04	3.78984160e-04	0.00000000e+00
3.99            	3.43211820e-01	7.82676430e-04	4.38632980e-04	4.24537860e-04	0.00000000e+00
3.995           	1.52052400e-01	7.77786580e-04	4.34033840e-04	4.60763570e-04	0.00000000e+00
4               	1.09679760e-01	7.72906790e-04	4.29444100e-04	5.23899870e-04	0.00000000e+00
4.005           	1.77575390e-01	7.68037480e-04	4.24863730e-04	3.69489570e-04	0.00000000e+00
4.01            	1.72640020e-01	7.63178820e-04	4.20292710e-04	4.70970910e-04	0.00000000e+00
4.015           	7.28945620e-02	7.58330830e-04	4.15731040e-04	4.33250750e-04	0.00000000e+00
4.02            	1.78399330e-01	7.53493530e-04	4.11178700e-04	4.98363220e-04	0.00000000e+00
4.025           	1.83807610e-01	7.48666910e-04	4.06635670e-04	3.87323810e-04	0.00000000e+00
4.03            	1.47892310e-01	7.43850980e-04	4.02101940e-04	4.45351200e-04	0.00000000e+00
4.035           	2.84294750e-01	7.39045710e-04	3.97577490e-04	3.73900500e-04	0.00000000e+00
4.04            	1.24312080e-01	7.34251120e-04	3.93062320e-04	4.66018070e-04	0.00000000e+00
4.045           	1.61212220e-01	7.29467180e-04	3.88556390e-04	4.12201850e-04	0.00000000e+00
4.05            	9.71909150e-02	7.24693890e-04	3.84059710e-04	4.61207010e-04	0.00000000e+00
4.055           	1.21620500e-01	7.19931250e-04	3.79572250e-04	3.84804790e-04	0.00000000e+00
4.06            	1.46792120e-01	7.15179240e-04	3.75094000e-04	3.77473450e-04	0.00000000e+00
4.065           	1.27567930e-01	7.10437870e-04	3.70624940e-04	3.71221480e-04	0.00000000e+00
4.07            	1.72269020e-01	7.05707110e-04	3.66165070e-04	4.87777100e-04	0.00000000e+00
4.075           	9.72140310e-02	7.00986970e-04	3.61714360e-04	5.35035400e-04	0.00000000e+00
4.08            	4.21859930e-01	6.96277440e-04	3.57272810e-04	3.51457080e-04	0.00000000e+00
4.085           	8.73710030e-02	6.91578500e-04	3.52840400e-04	5.35636650e-04	0.00000000e+00
4.09            	1.07266460e-01	6.86890160e-04	3.48417110e-04	4.27163120e-04	0.00000000e+00
4.095           	1.49720930e-01	6.82212400e-04	3.44002940e-04	3.18535930e-04	0.00000000e+00
4.1             	1.10980550e-01	6.77545220e-04	3.39597860e-04	5.03370500e-04	0.00000000e+00
4.105           	1.24434720e-01	6.72888610e-04	3.35201860e-04	3.24964090e-04	0.00000000e+00
4.11            	7.82221860e-02	6.68242560e-04	3.30814940e-04	4.12297040e-04	0.00000000e+00
4.115           	2.00262330e-01	6.63607070e-04	3.26437070e-04	3.73180910e-04	0.00000000e+00
4.12            	4.48790040e-01	6.58982120e-04	3.22068240e-04	3.40097810e-04	0.00000000e+00
4.125           	7.83576400e-02	6.54404270e-04	3.17708450e-04	3.87519760e-04	0.00000000e+00
4.13            	3.15075550e-01	6.49812210e-04	3.13357670e-04	2.60055070e-04	0.00000000e+00
4.135           	1.38622450e-01	6.45222430e-04	3.09015890e-04	3.43571090e-04	0.00000000e+00
4.14            	1.57941390e-01	6.40640440e-04	3.04683100e-04	4.11080260e-04	0.00000000e+00
4.145           	1.07197250e-01	6.36068040e-04	3.00359290e-04	3.14355750e-04	0.00000000e+00
4.15            	2.07460160e-01	6.31505850e-04	2.96044440e-04	3.38487680e-04	0.00000000e+00
4.155           	2.76103650e-01	6.26954060e-04	2.91738540e-04	4.24504740e-04	0.00000000e+00
4.16            	1.84241910e-01	6.22412730e-04	2.87441580e-04	3.52158050e-04	0.00000000e+00
4.165           	1.20720660e-01	6.17881880e-04	2.83153550e-04	3.24365210e-04	0.00000000e+00
4.17            	1.29122570e-01	6.13361500e-04	2.78874420e-04	2.61421130e-04	0.00000000e+00
4.175           	2.22184070e-01	6.08851590e-04	2.74604200e-04	3.19992120e-04	0.00000000e+00
4.18            	2.59086920e-01	6.04352150e-04	2.70342860e-04	2.40420180e-04	0.00000000e+00
4.185           	1.29443890e-01	5.99863160e-04	2.66090400e-04	3.49955600e-04	0.00000000e+00
4.19            	1.87062020e-01	5.95384630e-04	2.61846800e-04	3.20591080e-04	0.00000000e+00
4.195           	6.46106440e-02	5.90916540e-04	2.57612050e-04	3.66509840e-04	0.00000000e+00
4.2             	1.56900150e-01	5.86458880e-04	2.53386140e-04	3.19240840e-04	0.00000000e+00
4.205           	6.53228780e-02	5.82011660e-04	2.49169050e-04	2.41017910e-04	0.00000000e+00
4.21            	1.25947160e-01	5.77574850e-04	2.44960780e-04	2.85976490e-04	0.00000000e+00
4.215           	1.21744840e-01	5.73148460e-04	2.40761310e-04	1.82761850e-04	0.00000000e+00
4.22            	1.31731990e-01	5.68732480e-04	2.36570630e-04	2.94905190e-04	0.00000000e+00
4.225           	1.08138680e-01	5.64326890e-04	2.32388720e-04	2.99377500e-04	0.00000000e+00
4.23            	2.12261730e-01	5.59931700e-04	2.28215590e-04	2.61409820e-04	0.00000000e+00
4.235           	8.02969540e-02	5.55546890e-04	2.24051210e-04	2.66241040e-04	0.00000000e+00
4.24            	2.28041800e-01	5.51172470e-04	2.19895570e-04	2.28538010e-04	0.00000000e+00
4.245           	1.56215260e-01	5.46808410e-04	2.15748660e-04	3.47457980e-04	0.00000000e+00
4.25            	2.04068980e-01	5.42454720e-04	2.11610480e-04	2.47801280e-04	0.00000000e+00
4.255           	3.10791820e-01	5.38111390e-04	2.07481000e-04	3.14704800e-04	0.00000000e+00
4.26            	2.14798610e-01	5.33778400e-04	2.03360230e-04	3.02440060e-04	0.00000000e+00
4.265           	3.85563500e-01	5.29455760e-04	1.99248140e-04	3.15841500e-04	0.00000000e+00
4.27            	1.38274890e-01	5.25143460e-04	1.95144720e-04	3.20750330e-04	0.00000000e+00
4.275           	2.89120180e-01	5.20841480e-04	1.91049980e-04	2.96324510e-04	0.00000000e+00
4.28            	1.55075460e-01	5.16549830e-04	1.86963890e-04	2.72882150e-04	0.00000000e+00
4.285           	9.79834100e-02	5.12268490e-04	1.82886440e-04	2.58460880e-04	0.00000000e+00
4.29            	7.80835350e-02	5.07997460e-04	1.78817630e-04	2.83790050e-04	0.00000000e+00
4.295           	7.88365740e-02	5.03736730e-04	1.74757440e-04	2.69488890e-04	0.00000000e+00
4.3             	1.92170390e-01	4.99486300e-04	1.70705860e-04	2.51337080e-04	0.00000000e+00
4.305           	1.00160200e-01	4.95246150e-04	1.66662890e-04	3.13671470e-04	0.00000000e+00
4.31            	2.40364410e-01	4.91016280e-04	1.62628510e-04	2.84831460e-04	0.00000000e+00
4.315           	1.15471490e-01	4.86796690e-04	1.58602710e-04	2.63168490e-04	0.00000000e+00
4.32            	1.36713650e-01	4.82587370e-04	1.54585480e-04	2.76463960e-04	0.00000000e+00
4.325           	2.31331600e-01	4.78388300e-04	1.50576820e-04	2.87829670e-04	0.00000000e+00
4.33            	1.78549480e-01	4.74199490e-04	1.46576710e-04	2.96777400e-04	0.00000000e+00
4.335           	1.26011050e-01	4.70020930e-04	1.42585140e-04	3.06086140e-04	0.00000000e+00
4.34            	8.75078260e-02	4.65852600e-04	1.38602110e-04	3.67917100e-04	0.00000000e+00
4.345           	9.78658340e-02	4.61694510e-04	1.34627600e-04	2.91604330e-04	0.00000000e+00
4.35            	1.11826640e-01	4.57546650e-04	1.30661600e-04	3.34370430e-04	0.00000000e+00
4.355           	1.14804680e-01	4.53409000e-04	1.26704110e-04	2.64075220e-04	0.00000000e+00
4.36            	1.09257460e-01	4.49281570e-04	1.22755120e-04	3.58206350e-04	0.00000000e+00
4.365           	2.35837750e-01	4.45164350e-04	1.18814610e-04	2.88767880e-04	0.00000000e+00
4.37            	1.13114370e-01	4.41057320e-04	1.14882580e-04	3.29387100e-04	0.00000000e+00
4.375           	1.55341790e-01	4.36960490e-04	1.10959020e-04	2.83664720e-04	0.00000000e+00
4.38            	6.66206310e-02	4.32873850e-04	1.07043910e-04	3.70483640e-04	0.00000000e+00
4.385           	7.78590420e-02	4.28797390e-04	1.03137260e-04	3.28075250e-04	0.00000000e+00
4.39            	1.53831850e-01	4.24731100e-04	9.92390560e-05	2.51300950e-04	0.00000000e+00
4.395           	4.16487500e-02	4.20674980e-04	9.53492820e-05	2.91863790e-04	0.00000000e+00
4.4             	2.30611340e-01	4.16629020e-04	9.14679330e-05	3.03206220e-04	0.00000000e+00
4.405           	1.19419240e-01	4.12593220e-04	8.75950010e-05	2.55911030e-04	0.00000000e+00
4.41            	1.57601740e-01	4.08567560e-04	8.37304780e-05	2.43309650e-04	0.00000000e+00
4.415           	1.84256440e-01	4.04552050e-04	7.98743550e-05	3.59172570e-04	0.00000000e+00
4.42            	3.03107410e-01	4.00546670e-04	7.60266250e-05	2.54810140e-04	0.00000000e+00
4.425           	1.63660740e-01	3.96551420e-04	7.21872790e-05	3.29960160e-04	0.00000000e+00
4.43            	1.79991520e-01	3.92566290e-04	6.83563090e-05	2.81083390e-04	0.00000000e+00
4.435           	1.27649780e-01	3.88591290e-04	6.45337080e-05	2.64434380e-04	0.00000000e+00
4.44            	1.28151800e-01	3.84626390e-04	6.07194670e-05	2.78219920e-04	0.00000000e+00
4.445           	6.24982000e-02	3.80671590e-04	5.69135800e-05	2.82350260e-04	0.00000000e+00
4.45            	1.79920480e-01	3.76726900e-04	5.31160390e-05	2.64649740e-04	0.00000000e+00
4.455           	1.09533400e-01	3.72792290e-04	4.93268360e-05	2.92633500e-04	0.00000000e+00
4.46            	2.27110940e-01	3.68867780e-04	4.55459630e-05	2.60735870e-04	0.00000000e+00
4.465           	1.00935400e-01	3.64953340e-04	4.17734150e-05	2.97747320e-04	0.00000000e+00
4.47            	1.26360850e-01	3.61048970e-04	3.80091830e-05	2.85518250e-04	0.00000000e+00
4.475           	1.45513060e-01	3.57154680e-04	3.42532600e-05	3.44044380e-04	0.00000000e+00
4.48            	1.67380960e-01	3.53270440e-04	3.05056400e-05	3.31804720e-04	0.00000000e+00
4.485           	1.07691850e-01	3.49396260e-04	2.67663160e-05	2.53544900e-04	0.00000000e+00
4.49            	1.94476420e-01	3.45532140e-04	2.30352800e-05	2.72227440e-04	0.00000000e+00
4.495           	1.68404250e-01	3.41678050e-04	1.93125270e-05	3.46342740e-04	0.00000000e+00
4.5             	7.28421330e-02	3.37834000e-04	1.55980490e-05	3.07322150e-04	0.00000000e+00
4.505           	1.27715910e-01	3.33999990e-04	1.19055610e-05	3.09198010e-04	0.00000000e+00
4.51            	5.49644440e-02	3.30176000e-04	8.57780370e-06	2.87724940e-04	0.00000000e+00
4.515           	9.40008670e-02	3.26362030e-04	6.13269970e-06	2.33364070e-04	0.00000000e+00
4.52            	5.25657200e-02	3.22558070e-04	4.75994450e-06	2.78308990e-04	0.00000000e+00
4.525           	1.41368580e-01	3.18764090e-04	4.74518140e-06	2.61152320e-04	0.00000000e+00
4.53            	1.35072620e-01	3.14980080e-04	7.07194260e-06	2.60855790e-04	0.00000000e+00
4.535           	1.39989220e-01	3.11206060e-04	1.06536070e-05	2.16802440e-04	0.00000000e+00
4.54            	1.39083040e-01	3.07442030e-04	1.42278900e-05	2.68744480e-04	0.00000000e+00
4.545           	9.90922310e-02	3.03687990e-04	1.77943520e-05	2.92215360e-04	0.00000000e+00
4.55            	8.79697380e-02	2.99943930e-04	2.13769780e-05	2.90925880e-04	0.00000000e+00
4.555           	3.36400400e-02	2.96209850e-04	2.49812200e-05	2.55891360e-04	0.00000000e+00
4.56            	8.87224760e-02	2.92485740e-04	2.85772830e-05	3.00678870e-04	0.00000000e+00
4.565           	1.24086490e-01	2.88771590e-04	3.21651820e-05	2.13887880e-04	0.00000000e+00
4.57            	9.07966380e-02	2.85067400e-04	3.57449230e-05	2.52482570e-04	0.00000000e+00
4.575           	2.44985570e-01	2.81373170e-04	3.93165160e-05	1.88306670e-04	0.00000000e+00
4.58            	9.37679360e-02	2.77688890e-04	4.28799640e-05	2.19613600e-04	0.00000000e+00
4.585           	4.12885430e-01	2.74014550e-04	4.64352730e-05	1.67400430e-04	0.00000000e+00
4.59            	8.10759250e-02	2.70350140e-04	4.99824500e-05	2.25297890e-04	0.00000000e+00
4.595           	1.11527740e-01	2.66695670e-04	5.35214980e-05	1.64956030e-04	0.00000000e+00
4.6             	1.20596950e-01	2.63051130e-04	5.70524230e-05	1.58169880e-04	0.00000000e+00
4.605           	2.94135280e-01	2.59416420e-04	6.05915540e-05	1.92279570e-04	0.00000000e+00
4.61            	2.62175500e-01	2.55791620e-04	6.41234350e-05	1.76749160e-04	0.00000000e+00
4.615           	3.24027420e-02	2.52176740e-04	6.76525420e-05	1.20344770e-04	0.00000000e+00
4.62            	8.38594290e-02	2.48571760e-04	7.11707670e-05	1.03542420e-04	0.00000000e+00
4.625           	1.37720060e-01	2.44976680e-04	7.46799240e-05	1.37221190e-04	0.00000000e+00
4.63            	1.67498850e-01	2.41391500e-04	7.81806230e-05	1.42946940e-04	0.00000000e+00
4.635           	9.95093040e-02	2.37816220e-04	8.16730740e-05	1.33539730e-04	0.00000000e+00
4.64            	1.01552890e-01	2.34250820e-04	8.51573500e-05	1.15247900e-04	0.00000000e+00
4.645           	1.33372810e-01	2.30695300e-04	8.86334810e-05	9.62092400e-05	0.00000000e+00
4.65            	7.62382790e-02	2.27149670e-04	9.21014800e-05	1.03977830e-04	0.00000000e+00
4.655           	7.67764420e-02	2.23613900e-04	9.55613550e-05	8.20381810e-05	0.00000000e+00
4.66            	1.31540040e-01	2.20088000e-04	9.90131110e-05	1.16471820e-04	0.00000000e+00
4.665           	4.19480940e-01	2.16571960e-04	1.02456750e-04	1.00923490e-04	0.00000000e+00
4.67            	1.20074720e-01	2.13065780e-04	1.05892290e-04	1.33897250e-04	0.00000000e+00
4.675           	7.93856930e-02	2.09569450e-04	1.09319720e-04	8.94859090e-05	0.00000000e+00
4.68            	4.47598730e-01	2.06082970e-04	1.12739050e-04	7.94744070e-05	0.00000000e+00
4.685           	1.20522600e-01	2.02606330e-04	1.16150280e-04	9.25543930e-05	0.00000000e+00
4.69            	9.67195240e-02	1.99139520e-04	1.19553420e-04	1.28506990e-04	0.00000000e+00
4.695           	1.77907280e-01	1.95682540e-04	1.22948470e-04	6.55811910e-05	0.00000000e+00
4.7             	4.60759150e-02	1.92235390e-04	1.26335430e-04	1.15743400e-04	0.00000000e+00
4.705           	2.02668980e-01	1.88798060e-04	1.29714310e-04	9.46383210e-05	0.00000000e+00
4.71            	1.35124580e-01	1.85370550e-04	1.33085110e-04	9.87960820e-05	0.00000000e+00
4.715           	1.15872200e-01	1.81952850e-04	1.36447830e-04	1.07969180e-04	0.00000000e+00
4.72            	9.49832260e-02	1.78544950e-04	1.39802480e-04	1.31593070e-04	0.00000000e+00
4.725           	6.62236900e-02	1.75146860e-04	1.43149050e-04	1.14031050e-04	0.00000000e+00
4.73            	9.75902690e-02	1.71758560e-04	1.46487560e-04	9.71110430e-05	0.00000000e+00
4.735           	7.67118770e-02	1.68380050e-04	1.49818000e-04	8.67221160e-05	0.00000000e+00
4.74            	1.08798640e-01	1.65011330e-04	1.53140370e-04	1.01749490e-04	0.00000000e+00
4.745           	9.28581590e-02	1.61652390e-04	1.56454680e-04	1.23926990e-04	0.00000000e+00
4.75            	1.06162180e-01	1.58303230e-04	1.59760940e-04	1.13863890e-04	0.00000000e+00
4.755           	4.69693280e-01	1.54963840e-04	1.63059130e-04	1.14291610e-04	0.00000000e+00
4.76            	1.08950460e-01	1.51634220e-04	1.66349270e-04	1.05704610e-04	0.00000000e+00
4.765           	1.00703970e-01	1.48314360e-04	1.69631350e-04	1.21704260e-04	0.00000000e+00
4.77            	1.51207580e-01	1.45004260e-04	1.72905380e-04	1.30118840e-04	0.00000000e+00
4.775           	2.54653210e-01	1.41703910e-04	1.76171360e-04	9.76705260e-05	0.00000000e+00
4.78            	2.99830910e-01	1.38413310e-04	1.79429290e-04	9.25637670e-05	0.00000000e+00
4.785           	2.09113000e-01	1.35132450e-04	1.82679170e-04	1.14724750e-04	0.00000000e+00
4.79            	7.15001230e-02	1.31861330e-04	1.85921000e-04	1.18694860e-04	0.00000000e+00
4.795           	1.14266050e-01	1.28599950e-04	1.89154790e-04	1.03193300e-04	0.00000000e+00
4.8             	1.69769060e-01	1.25348300e-04	1.92380530e-04	8.43788510e-05	0.00000000e+00
4.805           	1.46731020e-01	1.22106370e-04	1.95598230e-04	8.36155850e-05	0.00000000e+00
4.81            	2.59788660e-01	1.18874160e-04	1.98807890e-04	1.24354110e-04	0.00000000e+00
4.815           	2.18247300e-01	1.15651670e-04	2.02009500e-04	1.09868280e-04	0.00000000e+00
4.82            	1.07119320e-01	1.12438900e-04	2.05203080e-04	1.17932290e-04	0.00000000e+00
4.825           	7.61829060e-02	1.09235820e-04	2.08388610e-04	1.30384920e-04	0.00000000e+00
4.83            	1.33715530e-01	1.06042460e-04	2.11566100e-04	9.25415730e-05	0.00000000e+00
4.835           	8.95042500e-02	1.02858770e-04	2.14746490e-04	1.11107310e-04	0.00000000e+00
4.84            	1.56313160e-01	9.96847750e-05	2.17911490e-04	1.06482840e-04	0.00000000e+00
4.845           	1.11946640e-01	9.65204640e-05	2.21066000e-04	1.03837450e-04	0.00000000e+00
4.85            	8.30998300e-02	9.33658370e-05	2.24211650e-04	9.77469810e-05	0.00000000e+00
4.855           	2.57537720e-01	9.02208920e-05	2.27348970e-04	9.87908670e-05	0.00000000e+00
4.86            	4.88394440e-02	8.70856240e-05	2.30478160e-04	1.31020450e-04	0.00000000e+00
4.865           	2.36567030e-01	8.39600290e-05	2.33599270e-04	1.08704120e-04	0.00000000e+00
4.87            	6.79668980e-02	8.08441020e-05	2.36712330e-04	1.09286800e-04	0.00000000e+00
4.875           	6.80390060e-02	7.77378390e-05	2.39817350e-04	1.04025610e-04	0.00000000e+00
4.88            	3.96696310e-01	7.46412360e-05	2.42914320e-04	1.02576590e-04	0.00000000e+00
4.885           	9.37000330e-02	7.15542880e-05	2.46003240e-04	1.18099850e-04	0.00000000e+00
4.89            	1.44460560e-01	6.84769910e-05	2.49084130e-04	1.01758450e-04	0.00000000e+00
4.895           	4.87749920e-02	6.54093410e-05	2.52156970e-04	1.27478850e-04	0.00000000e+00
4.9             	5.33329500e-02	6.23513330e-05	2.55221770e-04	1.17644170e-04	0.00000000e+00
4.905           	8.50899860e-02	5.93029640e-05	2.58278530e-04	1.08577650e-04	0.00000000e+00
4.91            	2.30135980e-01	5.62642280e-05	2.61327240e-04	1.05157720e-04	0.00000000e+00
4.915           	2.31333910e-01	5.32351210e-05	2.64367910e-04	8.95549900e-05	0.00000000e+00
4.92            	8.56451030e-02	5.02156400e-05	2.67400540e-04	8.45369440e-05	0.00000000e+00
4.925           	6.70303230e-02	4.72057800e-05	2.70425120e-04	9.50228090e-05	0.00000000e+00
4.93            	1.64521620e-01	4.42055360e-05	2.73441650e-04	1.09686210e-04	0.00000000e+00
4.935           	1.33940060e-01	4.12149050e-05	2.76450130e-04	1.00542070e-04	0.00000000e+00
4.94            	5.47222360e-02	3.82369070e-05	2.79450570e-04	1.01392830e-04	0.00000000e+00
4.945           	1.31931700e-01	3.53168300e-05	2.82442950e-04	1.10515790e-04	0.00000000e+00
4.95            	3.48082320e-01	3.25026180e-05	2.85427280e-04	9.68867710e-05	0.00000000e+00
4.955           	1.02389610e-01	2.98354280e-05	2.88403560e-04	8.96814820e-05	0.00000000e+00
4.96            	6.13929480e-02	2.73350250e-05	2.91371790e-04	1.16573050e-04	0.00000000e+00
4.965           	1.69054060e-01	2.50256370e-05	2.94331960e-04	7.71017640e-05	0.00000000e+00
4.97            	1.35304670e-01	2.29325260e-05	2.97284070e-04	9.20058510e-05	0.00000000e+00
4.975           	9.21522390e-02	2.10635560e-05	3.00228120e-04	8.60924340e-05	0.00000000e+00
4.98            	6.75187580e-02	1.94341780e-05	3.03164110e-04	1.20778650e-04	0.00000000e+00
4.985           	6.14317300e-02	1.80678780e-05	3.06092040e-04	8.44406560e-05	0.00000000e+00
4.99            	1.06820030e-01	1.69463370e-05	3.09011900e-04	7.42963830e-05	0.00000000e+00
4.995           	1.98717250e-01	1.61247200e-05	3.11923690e-04	1.21455120e-04	0.00000000e+00
5               	1.70743320e-01	1.55556290e-05	3.14827420e-04	8.18702260e-05	0.00000000e+00
5.005           	2.88187940e-01	1.52852730e-05	3.17723070e-04	9.60583230e-05	0.00000000e+00
5.01            	1.93572810e-01	1.52897400e-05	3.20618360e-04	7.41991610e-05	0.00000000e+00
5.015           	1.47178840e-01	1.55850770e-05	3.23500400e-04	7.94659870e-05	0.00000000e+00
5.02            	1.48911120e-01	1.61669570e-05	3.26372630e-04	8.64285950e-05	0.00000000e+00
5.025           	3.70852520e-01	1.70305810e-05	3.29236190e-04	9.76604550e-05	0.00000000e+00
5.03            	5.45186870e-02	1.81785930e-05	3.32091470e-04	7.54277440e-05	0.00000000e+00
5.035           	6.98610170e-02	1.95948820e-05	3.34938600e-04	1.15632340e-04	0.00000000e+00
5.04            	1.39861090e-01	2.12815340e-05	3.37633180e-04	1.06100010e-04	0.00000000e+00
5.045           	2.62467520e-01	2.32057200e-05	3.40416690e-04	8.39764110e-05	0.00000000e+00
5.05            	2.54894930e-01	2.53879740e-05	3.43224560e-04	8.26052860e-05	0.00000000e+00
5.055           	8.82873930e-02	2.78374100e-05	3.46035220e-04	1.09271910e-04	0.00000000e+00
5.06            	1.83470630e-01	3.04379480e-05	3.48841480e-04	8.16056220e-05	0.00000000e+00
5.065           	2.24585580e-01	3.31798920e-05	3.51640890e-04	1.11633540e-04	0.00000000e+00
5.07            	1.05981750e-01	3.59123480e-05	3.54432660e-04	9.94868330e-05	0.00000000e+00
5.075           	1.18870040e-01	3.86353180e-05	3.57216480e-04	9.49677630e-05	0.00000000e+00
5.08            	2.95898890e-01	4.13744450e-05	3.59992270e-04	9.97976010e-05	0.00000000e+00
5.085           	1.01386440e-01	4.40868640e-05	3.62759990e-04	9.77203940e-05	0.00000000e+00
5.09            	1.61343510e-01	4.67840650e-05	3.65519600e-04	1.08912730e-04	0.00000000e+00
5.095           	8.83397450e-02	4.94698820e-05	3.68271110e-04	7.65632140e-05	0.00000000e+00
5.1             	1.23120290e-01	5.21455970e-05	3.71014500e-04	1.31233540e-04	0.00000000e+00
5.105           	2.04563780e-01	5.48116400e-05	3.73749770e-04	1.43314560e-04	0.00000000e+00
5.11            	5.77757510e-02	5.74681570e-05	3.76476910e-04	1.33352320e-04	0.00000000e+00
5.115           	2.29819060e-01	6.01151990e-05	3.79195920e-04	1.43974640e-04	0.00000000e+00
5.12            	1.39486590e-01	6.27527860e-05	3.81906780e-04	1.53942880e-04	0.00000000e+00
5.125           	7.52145490e-02	6.53809270e-05	3.84609500e-04	1.78545440e-04	0.00000000e+00
5.13            	1.82790600e-01	6.79996270e-05	3.87304070e-04	1.77877250e-04	0.00000000e+00
5.135           	2.05450110e-01	7.06088920e-05	3.89990470e-04	1.31132100e-04	0.00000000e+00
5.14            	2.42838450e-01	7.32087260e-05	3.92668720e-04	1.42288070e-04	0.00000000e+00
5.145           	6.77176940e-02	7.57991320e-05	3.95338800e-04	1.47937860e-04	0.00000000e+00
5.15            	2.70956310e-01	7.83801160e-05	3.98000700e-04	1.18875630e-04	0.00000000e+00
5.155           	1.10901770e-01	8.09516790e-05	4.00654430e-04	1.18393500e-04	0.00000000e+00
5.16            	8.43489600e-02	8.35138280e-05	4.03299970e-04	1.05087430e-04	0.00000000e+00
5.165           	1.03541760e-01	8.60665660e-05	4.05937330e-04	1.43370540e-04	0.00000000e+00
5.17            	5.16093310e-02	8.86098970e-05	4.08566490e-04	1.87008160e-04	0.00000000e+00
5.175           	2.18160600e-01	9.11438240e-05	4.11187460e-04	1.56653960e-04	0.00000000e+00
5.18            	1.06637900e-01	9.36683530e-05	4.13800220e-04	1.37574090e-04	0.00000000e+00
5.185           	8.54081060e-02	9.61834870e-05	4.16404770e-04	1.38503200e-04	0.00000000e+00
5.19            	7.77454380e-02	9.86892300e-05	4.19001110e-04	1.39963740e-04	0.00000000e+00
5.195           	9.35378560e-02	1.01185590e-04	4.21589230e-04	1.51150510e-04	0.00000000e+00
5.2             	2.25861750e-01	1.03672560e-04	4.24169130e-04	2.06182280e-04	0.00000000e+00
5.205           	6.95924680e-02	1.06150160e-04	4.26740800e-04	1.96630720e-04	0.00000000e+00
5.21            	1.40011010e-01	1.08618380e-04	4.29304240e-04	1.43072880e-04	0.00000000e+00
5.215           	1.18531640e-01	1.11077230e-04	4.31859430e-04	1.58801110e-04	0.00000000e+00
5.22            	4.73064480e-02	1.13526710e-04	4.34406390e-04	1.53428900e-04	0.00000000e+00
5.225           	1.24630390e-01	1.15983650e-04	4.36945090e-04	1.57203800e-04	0.00000000e+00
5.23            	1.01480330e-01	1.18419930e-04	4.39475540e-04	1.52938830e-04	0.00000000e+00
5.235           	7.68092070e-02	1.20843100e-04	4.41997730e-04	1.64282270e-04	0.00000000e+00
5.24            	8.23394000e-02	1.23255670e-04	4.44511650e-04	1.46904850e-04	0.00000000e+00
5.245           	7.62738770e-02	1.25658480e-04	4.47017300e-04	1.42864300e-04	0.00000000e+00
5.25            	5.03156120e-02	1.28051800e-04	4.49514680e-04	1.25341650e-04	0.00000000e+00
5.255           	8.80003550e-02	1.30435750e-04	4.52003770e-04	1.37361780e-04	0.00000000e+00
5.26            	2.50267640e-01	1.32810350e-04	4.54484580e-04	1.64980250e-04	0.00000000e+00
5.265           	1.61769860e-01	1.35175610e-04	4.56957100e-04	2.11549510e-04	0.00000000e+00
5.27            	6.40976410e-02	1.37531550e-04	4.59421310e-04	1.85779470e-04	0.00000000e+00
5.275           	8.20003280e-02	1.39878180e-04	4.61877230e-04	1.33469500e-04	0.00000000e+00
5.28            	1.30906990e-01	1.42215480e-04	4.64324830e-04	1.45429910e-04	0.00000000e+00
5.285           	1.17142910e-01	1.44543480e-04	4.66764120e-04	1.41493320e-04	0.00000000e+00
5.29            	8.56580270e-02	1.46862180e-04	4.69195090e-04	1.44180330e-04	0.00000000e+00
5.295           	1.77828120e-01	1.49171570e-04	4.71617730e-04	1.54102500e-04	0.00000000e+00
5.3             	1.52856280e-01	1.51471670e-04	4.74032040e-04	1.74359170e-04	0.00000000e+00
5.305           	8.07559640e-02	1.53774180e-04	4.76438010e-04	1.87774580e-04	0.00000000e+00
5.31            	2.10482800e-01	1.56059550e-04	4.78835630e-04	1.59999800e-04	0.00000000e+00
5.315           	1.27655180e-01	1.58333050e-04	4.81260740e-04	1.44954640e-04	0.00000000e+00
5.32            	1.13354180e-01	1.60596410e-04	4.83653400e-04	2.28604120e-04	0.00000000e+00
5.325           	6.55328340e-02	1.62850210e-04	4.86029650e-04	1.45667560e-04	0.00000000e+00
5.33            	1.26713950e-01	1.65094640e-04	4.88394820e-04	1.46766410e-04	0.00000000e+00
5.335           	8.12661410e-02	1.67329770e-04	4.90750720e-04	1.66802370e-04	0.00000000e+00
5.34            	1.24676010e-01	1.69555630e-04	4.93097920e-04	2.00355780e-04	0.00000000e+00
5.345           	1.17926410e-01	1.71772230e-04	4.95436630e-04	1.79297670e-04	0.00000000e+00
5.35            	2.60166570e-01	1.73979580e-04	4.97766910e-04	1.85439230e-04	0.00000000e+00
5.355           	1.48686870e-01	1.76177680e-04	5.00088770e-04	1.91491600e-04	0.00000000e+00
5.36            	2.65380190e-01	1.78374960e-04	5.02402220e-04	1.77959140e-04	0.00000000e+00
5.365           	1.40599440e-01	1.80557350e-04	5.04707250e-04	1.87967660e-04	0.00000000e+00
5.37            	1.02577920e-01	1.82728620e-04	5.07003860e-04	1.88369490e-04	0.00000000e+00
5.375           	6.72573130e-02	1.84890040e-04	5.09292050e-04	1.82312050e-04	0.00000000e+00
5.38            	2.29341330e-01	1.87042020e-04	5.11571810e-04	2.03236150e-04	0.00000000e+00
5.385           	5.61725350e-02	1.89184700e-04	5.13843120e-04	1.60721690e-04	0.00000000e+00
5.39            	1.21843340e-01	1.91318160e-04	5.16106000e-04	1.74278540e-04	0.00000000e+00
5.395           	9.85874580e-02	1.93442390e-04	5.18360420e-04	1.84462270e-04	0.00000000e+00
5.4             	1.78213900e-01	1.95563650e-04	5.20606390e-04	1.99095290e-04	0.00000000e+00
5.405           	9.52831940e-02	1.97671530e-04	5.22843890e-04	2.11255240e-04	0.00000000e+00
5.41            	1.09052890e-01	1.99768820e-04	5.25072930e-04	1.93125310e-04	0.00000000e+00
5.415           	8.62639580e-02	2.01856460e-04	5.27293490e-04	2.21429700e-04	0.00000000e+00
5.42            	1.97440230e-01	2.03934750e-04	5.29505570e-04	1.73903670e-04	0.00000000e+00
5.425           	8.89504820e-02	2.06008550e-04	5.31709160e-04	2.20926430e-04	0.00000000e+00
5.43            	7.96611820e-02	2.08069980e-04	5.33904250e-04	2.26152920e-04	0.00000000e+00
5.435           	1.36306720e-01	2.10121180e-04	5.36090840e-04	2.13083090e-04	0.00000000e+00
5.44            	1.80952630e-01	2.12162860e-04	5.38268920e-04	2.41889150e-04	0.00000000e+00
5.445           	1.92248590e-01	2.14198920e-04	5.40438490e-04	2.31331650e-04	0.00000000e+00
5.45            	2.07905340e-01	2.16223330e-04	5.42599530e-04	2.18589410e-04	0.00000000e+00
5.455           	1.64568990e-01	2.18237770e-04	5.44752050e-04	2.28426160e-04	0.00000000e+00
5.46            	2.62693280e-01	2.20245670e-04	5.46920600e-04	2.69752390e-04	0.00000000e+00
5.465           	1.71059610e-01	2.22242430e-04	5.49064080e-04	2.63847010e-04	0.00000000e+00
5.47            	7.82063430e-02	2.24229390e-04	5.51193480e-04	2.47735620e-04	0.00000000e+00
5.475           	1.44392120e-01	2.26209270e-04	5.53312470e-04	2.54639480e-04	0.00000000e+00
5.48            	1.61184760e-01	2.28178430e-04	5.55422260e-04	2.80053180e-04	0.00000000e+00
5.485           	9.12606150e-02	2.30139770e-04	5.57523270e-04	2.46800370e-04	0.00000000e+00
5.49            	7.18056590e-02	2.31762450e-04	5.59615620e-04	2.60744630e-04	0.00000000e+00
5.495           	9.27978260e-02	2.33596010e-04	5.61699360e-04	2.51224460e-04	0.00000000e+00
5.5             	1.45269440e-01	2.35493880e-04	5.63774490e-04	2.61796070e-04	0.00000000e+00
5.505           	2.37500180e-01	2.37407100e-04	5.65841020e-04	2.52868520e-04	0.00000000e+00
5.51            	6.56848310e-02	2.39319380e-04	5.67898930e-04	2.48283450e-04	0.00000000e+00
5.515           	1.60238470e-01	2.41225280e-04	5.69948230e-04	2.47053530e-04	0.00000000e+00
5.52            	1.07295750e-01	2.43122980e-04	5.71988900e-04	2.50610900e-04	0.00000000e+00
5.525           	7.56299880e-02	2.45011920e-04	5.74020940e-04	2.50750060e-04	0.00000000e+00
5.53            	1.36421400e-01	2.46891870e-04	5.76044340e-04	2.59601810e-04	0.00000000e+00
5.535           	4.40384720e-02	2.48762750e-04	5.78059100e-04	2.43976700e-04	0.00000000e+00
5.54            	8.94976990e-02	2.50624590e-04	5.80065200e-04	2.34949830e-04	0.00000000e+00
5.545           	2.17670400e-01	2.52477370e-04	5.82080060e-04	2.71563930e-04	0.00000000e+00
5.55            	7.36436070e-02	2.54321120e-04	5.84074530e-04	2.59346490e-04	0.00000000e+00
5.555           	1.10920200e-01	2.56155810e-04	5.86056410e-04	2.79712890e-04	0.00000000e+00
5.56            	1.40831550e-01	2.57981450e-04	5.88028300e-04	2.68779470e-04	0.00000000e+00
5.565           	2.01023450e-01	2.59798040e-04	5.89991040e-04	2.98392010e-04	0.00000000e+00
5.57            	2.06054390e-01	2.61605590e-04	5.91944940e-04	2.67330020e-04	0.00000000e+00
5.575           	1.14197740e-01	2.63404100e-04	5.93890080e-04	2.76856230e-04	0.00000000e+00
5.58            	6.04345290e-02	2.65193580e-04	5.95826490e-04	2.79579370e-04	0.00000000e+00
5.585           	1.04636680e-01	2.66974040e-04	5.97754160e-04	2.63077060e-04	0.00000000e+00
5.59            	1.72045420e-01	2.68745490e-04	5.99673110e-04	3.01131710e-04	0.00000000e+00
5.595           	1.05163470e-01	2.70507940e-04	6.01583310e-04	2.98123750e-04	0.00000000e+00
5.6             	8.67862500e-02	2.72261380e-04	6.03484770e-04	2.68971680e-04	0.00000000e+00
5.605           	1.00843950e-01	2.74005830e-04	6.05377480e-04	2.91366710e-04	0.00000000e+00
5.61            	3.33827960e-02	2.75741310e-04	6.07273910e-04	2.94149600e-04	0.00000000e+00
5.615           	9.56921580e-02	2.77467800e-04	6.09153180e-04	3.04594590e-04	0.00000000e+00
5.62            	9.61264180e-02	2.79185290e-04	6.11020860e-04	2.80789440e-04	0.00000000e+00
5.625           	2.22915210e-01	2.80893820e-04	6.12878820e-04	2.79979660e-04	0.00000000e+00
5.63            	1.82040770e-01	2.82593390e-04	6.14727670e-04	2.93106010e-04	0.00000000e+00
5.635           	1.37748930e-01	2.84284020e-04	6.16567610e-04	2.85539200e-04	0.00000000e+00
5.64            	9.35224090e-02	2.85965680e-04	6.18398700e-04	2.74419730e-04	0.00000000e+00
5.645           	1.26250800e-01	2.87638380e-04	6.20220970e-04	2.78401460e-04	0.00000000e+00
5.65            	2.79666970e-01	2.89302160e-04	6.22034410e-04	2.77737590e-04	0.00000000e+00
5.655           	6.81098920e-02	2.90956980e-04	6.23839020e-04	3.06373070e-04	0.00000000e+00
5.66            	3.13128890e-01	2.92602890e-04	6.25643820e-04	2.76644200e-04	0.00000000e+00
5.665           	1.16378680e-01	2.94239880e-04	6.27433700e-04	2.90012940e-04	0.00000000e+00
5.67            	2.12438570e-01	2.95867970e-04	6.29212700e-04	2.86571830e-04	0.00000000e+00
5.675           	8.80365940e-02	2.97487160e-04	6.30982150e-04	2.89970080e-04	0.00000000e+00
5.68            	1.01187080e-01	2.99097440e-04	6.32742500e-04	2.80465350e-04	0.00000000e+00
5.685           	1.16224250e-01	3.00698810e-04	6.34493900e-04	3.12525870e-04	0.00000000e+00
5.69            	2.79173660e-01	3.02291310e-04	6.36236380e-04	2.91665400e-04	0.00000000e+00
5.695           	1.83336910e-01	3.03874930e-04	6.37969960e-04	2.76570370e-04	0.00000000e+00
5.7             	8.35334920e-02	3.05449650e-04	6.39701220e-04	2.73091620e-04	0.00000000e+00
5.705           	1.11291750e-01	3.07015540e-04	6.41419140e-04	2.97607640e-04	0.00000000e+00
5.71            	7.09007270e-02	3.08572560e-04	6.43126670e-04	2.83600430e-04	0.00000000e+00
5.715           	5.75467280e-02	3.10120710e-04	6.44824770e-04	2.73063660e-04	0.00000000e+00
5.72            	5.73328270e-02	3.11660040e-04	6.46513760e-04	2.71985960e-04	0.00000000e+00
5.725           	6.23258800e-02	3.13190510e-04	6.48198630e-04	2.99560720e-04	0.00000000e+00
5.73            	7.57143060e-02	3.14712180e-04	6.49871250e-04	2.87963980e-04	0.00000000e+00
5.735           	8.35299210e-02	3.16225010e-04	6.51533820e-04	2.86393350e-04	0.00000000e+00
5.74            	4.76320380e-02	3.17729020e-04	6.53187060e-04	2.71899560e-04	0.00000000e+00
5.745           	1.65928070e-01	3.19224220e-04	6.54834800e-04	2.74281110e-04	0.00000000e+00
5.75            	5.39494360e-02	3.20710620e-04	6.56471100e-04	3.11385880e-04	0.00000000e+00
5.755           	6.65099590e-02	3.22188230e-04	6.58100290e-04	3.24328120e-04	0.00000000e+00
5.76            	1.56981830e-01	3.23657030e-04	6.59718390e-04	2.92774940e-04	0.00000000e+00
5.765           	7.98399480e-02	3.25117060e-04	6.61328810e-04	2.73474120e-04	0.00000000e+00
5.77            	5.34039460e-02	3.26568190e-04	6.62614680e-04	3.13590180e-04	0.00000000e+00
5.775           	2.24063230e-01	3.28010420e-04	6.64102170e-04	2.83983680e-04	0.00000000e+00
5.78            	2.04633430e-01	3.29443880e-04	6.65651070e-04	2.96893570e-04	0.00000000e+00
5.785           	1.22200450e-01	3.30868560e-04	6.67214420e-04	2.65669620e-04	0.00000000e+00
5.79            	1.30362370e-01	3.32284510e-04	6.68776640e-04	2.90296520e-04	0.00000000e+00
5.795           	8.65327900e-02	3.33691760e-04	6.70332510e-04	3.00732740e-04	0.00000000e+00
5.8             	8.85973730e-02	3.35090270e-04	6.71880170e-04	2.97011800e-04	0.00000000e+00
5.805           	7.37514350e-02	3.36480100e-04	6.73419140e-04	2.95228150e-04	0.00000000e+00
5.81            	8.38344910e-02	3.37861230e-04	6.74949140e-04	3.02247330e-04	0.00000000e+00
5.815           	5.84110790e-02	3.39233650e-04	6.76470060e-04	2.95846620e-04	0.00000000e+00
5.82            	7.84157380e-02	3.40597410e-04	6.77981940e-04	3.06074660e-04	0.00000000e+00
5.825           	2.93815860e-01	3.41952490e-04	6.79484750e-04	3.34002250e-04	0.00000000e+00
5.83            	9.75986630e-02	3.43298930e-04	6.80978500e-04	2.99372500e-04	0.00000000e+00
5.835           	9.47440090e-02	3.44636690e-04	6.82463080e-04	2.87242790e-04	0.00000000e+00
5.84            	4.78439900e-02	3.45965830e-04	6.83938600e-04	2.69230350e-04	0.00000000e+00
5.845           	7.34311960e-02	3.47286320e-04	6.85404970e-04	2.47175970e-04	0.00000000e+00
5.85            	9.29760010e-02	3.48598180e-04	6.86862200e-04	2.68161000e-04	0.00000000e+00
5.855           	1.00636210e-01	3.49901410e-04	6.88310290e-04	2.93259750e-04	0.00000000e+00
5.86            	1.61016390e-01	3.51196020e-04	6.89749230e-04	2.82124000e-04	0.00000000e+00
5.865           	1.40266960e-01	3.52482020e-04	6.91178970e-04	2.84719270e-04	0.00000000e+00
5.87            	1.07458890e-01	3.53759440e-04	6.92599600e-04	2.85538950e-04	0.00000000e+00
5.875           	7.76460920e-02	3.55028270e-04	6.94011040e-04	3.01932340e-04	0.00000000e+00
5.88            	9.10373280e-02	3.56288500e-04	6.95413250e-04	2.90273980e-04	0.00000000e+00
5.885           	9.96801500e-02	3.57540170e-04	6.96806290e-04	2.79126580e-04	0.00000000e+00
5.89            	4.30205960e-02	3.58783290e-04	6.98190170e-04	3.01118330e-04	0.00000000e+00
5.895           	8.14867230e-02	3.60017850e-04	6.99564830e-04	3.03441450e-04	0.00000000e+00
5.9             	5.27126160e-02	3.61243860e-04	7.00930250e-04	2.90936410e-04	0.00000000e+00
5.905           	7.29055110e-02	3.62461310e-04	7.02286420e-04	2.88677450e-04	0.00000000e+00
5.91            	2.35879080e-01	3.63670240e-04	7.03633370e-04	3.06421340e-04	0.00000000e+00
5.915           	1.10566510e-01	3.64870680e-04	7.04971120e-04	2.87509860e-04	0.00000000e+00
5.92            	4.58971110e-02	3.66062570e-04	7.06299570e-04	3.14245410e-04	0.00000000e+00
5.925           	1.82467490e-01	3.67245980e-04	7.07618780e-04	3.13515890e-04	0.00000000e+00
5.93            	1.74773040e-01	3.68420900e-04	7.08928770e-04	2.91684790e-04	0.00000000e+00
5.935           	6.39301250e-02	3.69587340e-04	7.10229460e-04	2.86292430e-04	0.00000000e+00
5.94            	1.48394130e-01	3.70745270e-04	7.11520820e-04	3.05261510e-04	0.00000000e+00
5.945           	2.18308930e-01	3.71894770e-04	7.12802960e-04	3.01914430e-04	0.00000000e+00
5.95            	6.43753100e-02	3.73035810e-04	7.14075790e-04	3.11449200e-04	0.00000000e+00
5.955           	1.93456190e-01	3.74168370e-04	7.15339270e-04	3.08107220e-04	0.00000000e+00
5.96            	9.99651260e-02	3.75292510e-04	7.16593460e-04	3.05678890e-04	0.00000000e+00
5.965           	4.56924820e-02	3.76408220e-04	7.17838340e-04	2.97222620e-04	0.00000000e+00
5.97            	5.03292320e-02	3.77515530e-04	7.19073930e-04	2.87852970e-04	0.00000000e+00
5.975           	1.71116980e-01	3.78614420e-04	7.20300170e-04	2.96741910e-04	0.00000000e+00
5.98            	7.50564410e-02	3.79704880e-04	7.21517020e-04	2.70369340e-04	0.00000000e+00
5.985           	1.29877280e-01	3.80786970e-04	7.22724550e-04	2.97571880e-04	0.00000000e+00
5.99            	8.87449440e-02	3.81860680e-04	7.23922720e-04	2.94992660e-04	0.00000000e+00
5.995           	1.11952850e-01	3.82926030e-04	7.25111570e-04	2.87776310e-04	0.00000000e+00
6               	9.43829390e-02	3.83982990e-04	7.26291000e-04	3.06869610e-04	0.00000000e+00
6.005           	6.99857070e-02	3.85031620e-04	7.27461090e-04	3.03399770e-04	0.00000000e+00
6.01            	1.61633910e-01	3.86071890e-04	7.28621750e-04	2.98912070e-04	0.00000000e+00
6.015           	7.46320280e-02	3.87103850e-04	7.29773070e-04	3.07005330e-04	0.00000000e+00
6.02            	9.14148940e-02	3.88127450e-04	7.30914940e-04	2.91848110e-04	0.00000000e+00
6.025           	1.63779860e-01	3.89142760e-04	7.32047420e-04	3.04890230e-04	0.00000000e+00
6.03            	6.13427930e-02	3.90149760e-04	7.33170490e-04	2.88683790e-04	0.00000000e+00
6.035           	8.18456050e-02	3.91148470e-04	7.34284140e-04	2.80494760e-04	0.00000000e+00
6.04            	5.35391010e-02	3.92138900e-04	7.35388370e-04	2.94700020e-04	0.00000000e+00
6.045           	5.09410990e-02	3.93121070e-04	7.36483190e-04	2.83987830e-04	0.00000000e+00
6.05            	1.29818980e-01	3.94094970e-04	7.37568550e-04	2.89375610e-04	0.00000000e+00
6.055           	4.08819360e-02	3.95060610e-04	7.38644460e-04	2.65062350e-04	0.00000000e+00
6.06            	2.46590310e-01	3.96018010e-04	7.39710900e-04	2.89692380e-04	0.00000000e+00
6.065           	8.63083830e-02	3.96967170e-04	7.40767890e-04	2.70371940e-04	0.00000000e+00
6.07            	6.66334590e-02	3.97908100e-04	7.41815370e-04	2.65158920e-04	0.00000000e+00
6.075           	1.72374710e-01	3.98840850e-04	7.42853430e-04	3.08154630e-04	0.00000000e+00
6.08            	3.99594200e-02	3.99765380e-04	7.43881990e-04	2.87778090e-04	0.00000000e+00
6.085           	1.16803080e-01	4.00681730e-04	7.44901060e-04	2.80966290e-04	0.00000000e+00
6.09            	1.09204810e-01	4.01589880e-04	7.45910590e-04	2.86709130e-04	0.00000000e+00
6.095           	1.46850230e-01	4.02489890e-04	7.46910680e-04	2.99634620e-04	0.00000000e+00
6.1             	5.71926470e-02	4.03381710e-04	7.47901210e-04	3.08662770e-04	0.00000000e+00
6.105           	1.51609690e-01	4.04265400e-04	7.48882240e-04	3.10495660e-04	0.00000000e+00
6.11            	6.77446560e-02	4.05140960e-04	7.49853760e-04	2.99643910e-04	0.00000000e+00
6.115           	9.15178610e-02	4.06008390e-04	7.50815750e-04	3.11354860e-04	0.00000000e+00
6.12            	6.26247070e-02	4.06867710e-04	7.51768200e-04	2.84754530e-04	0.00000000e+00
6.125           	6.37076500e-02	4.07718930e-04	7.52711120e-04	2.84393470e-04	0.00000000e+00
6.13            	2.06100880e-01	4.08562050e-04	7.53644480e-04	3.01983170e-04	0.00000000e+00
6.135           	6.69581330e-02	4.09397100e-04	7.54568290e-04	2.90311770e-04	0.00000000e+00
6.14            	8.87066590e-02	4.10224090e-04	7.55482570e-04	3.14685960e-04	0.00000000e+00
6.145           	2.38444620e-01	4.11042990e-04	7.56387230e-04	3.16455680e-04	0.00000000e+00
6.15            	5.58624030e-02	4.11853860e-04	7.57282340e-04	3.10258450e-04	0.00000000e+00
6.155           	2.58285880e-01	4.12656710e-04	7.58167900e-04	3.00035180e-04	0.00000000e+00
6.16            	7.16868790e-02	4.13451530e-04	7.59043860e-04	2.92053180e-04	0.00000000e+00
6.165           	6.94564710e-02	4.14238330e-04	7.59910220e-04	2.94339740e-04	0.00000000e+00
6.17            	1.33049630e-01	4.15017110e-04	7.60766950e-04	2.83719370e-04	0.00000000e+00
6.175           	6.92239040e-02	4.15787940e-04	7.61614120e-04	2.83486620e-04	0.00000000e+00
6.18            	1.88082210e-01	4.16550770e-04	7.62451680e-04	2.91378940e-04	0.00000000e+00
6.185           	2.05752520e-01	4.17305620e-04	7.63279590e-04	2.96463090e-04	0.00000000e+00
6.19            	6.05795800e-02	4.18052550e-04	7.64097920e-04	2.85402740e-04	0.00000000e+00
6.195           	1.58508770e-01	4.18791520e-04	7.64906620e-04	3.09808660e-04	0.00000000e+00
6.2             	1.44542470e-01	4.19522560e-04	7.65705680e-04	3.14468070e-04	0.00000000e+00
6.205           	4.42183660e-02	4.20245670e-04	7.66495080e-04	3.18540480e-04	0.00000000e+00
6.21            	6.59140240e-02	4.20960900e-04	7.67274880e-04	3.07649840e-04	0.00000000e+00
6.215           	1.06708810e-01	4.21668220e-04	7.68045020e-04	3.09962080e-04	0.00000000e+00
6.22            	1.11772810e-01	4.22367650e-04	7.68805470e-04	3.05983350e-04	0.00000000e+00
6.225           	6.65502210e-02	4.23059230e-04	7.69556310e-04	3.00566230e-04	0.00000000e+00
6.23            	7.07542780e-02	4.23742940e-04	7.70297480e-04	2.99172670e-04	0.00000000e+00
6.235           	7.73656560e-02	4.24418790e-04	7.71028940e-04	2.94832680e-04	0.00000000e+00
6.24            	4.75688670e-02	4.25086820e-04	7.71750750e-04	2.93055250e-04	0.00000000e+00
6.245           	7.09346490e-02	4.25747050e-04	7.72462920e-04	2.94361400e-04	0.00000000e+00
6.25            	1.44596430e-01	4.26399460e-04	7.73165390e-04	3.10724660e-04	0.00000000e+00
6.255           	1.39274110e-01	4.27044050e-04	7.73858130e-04	2.90601160e-04	0.00000000e+00
6.26            	2.00162010e-01	4.27680880e-04	7.74541220e-04	3.07830300e-04	0.00000000e+00
6.265           	4.87483610e-02	4.28309930e-04	7.75214580e-04	2.97358500e-04	0.00000000e+00
6.27            	1.83773620e-01	4.28931230e-04	7.75878270e-04	3.12442700e-04	0.00000000e+00
6.275           	2.04879070e-01	4.29544790e-04	7.76532250e-04	3.07757730e-04	0.00000000e+00
6.28            	1.01130780e-01	4.30150610e-04	7.77176510e-04	3.03508830e-04	0.00000000e+00
6.285           	5.91089860e-02	4.30748700e-04	7.77811050e-04	2.88543680e-04	0.00000000e+00
6.29            	6.68222380e-02	4.31339090e-04	7.78435870e-04	2.91301800e-04	0.00000000e+00
6.295           	4.34818880e-02	4.31921790e-04	7.79050960e-04	2.94523780e-04	0.00000000e+00
6.3             	5.65941210e-02	4.32496790e-04	7.79656300e-04	2.97417830e-04	0.00000000e+00
6.305           	2.25038980e-01	4.33064150e-04	7.80251950e-04	3.00800450e-04	0.00000000e+00
6.31            	1.51589610e-01	4.33623840e-04	7.80837850e-04	3.01292770e-04	0.00000000e+00
6.315           	8.73254120e-02	4.34175880e-04	7.81413970e-04	2.86600310e-04	0.00000000e+00
6.32            	4.93035720e-02	4.34720310e-04	7.81980400e-04	3.15518100e-04	0.00000000e+00
6.325           	7.46862210e-02	4.35257110e-04	7.82537040e-04	2.83208630e-04	0.00000000e+00
6.33            	1.25883320e-01	4.35786320e-04	7.83083960e-04	3.01072700e-04	0.00000000e+00
6.335           	6.56012470e-02	4.36307930e-04	7.83621090e-04	2.92557520e-04	0.00000000e+00
6.34            	5.99018160e-02	4.36821960e-04	7.84148460e-04	2.95724130e-04	0.00000000e+00
6.345           	8.03608460e-02	4.37328440e-04	7.84666080e-04	2.87477460e-04	0.00000000e+00
6.35            	7.15418820e-02	4.37827370e-04	7.85173940e-04	3.04669210e-04	0.00000000e+00
6.355           	7.85136350e-02	4.38318760e-04	7.85672020e-04	2.94960560e-04	0.00000000e+00
6.36            	2.01039670e-01	4.38802640e-04	7.86160330e-04	2.99000090e-04	0.00000000e+00
6.365           	1.10593240e-01	4.39279000e-04	7.86638860e-04	2.96819010e-04	0.00000000e+00
6.37            	1.36232480e-01	4.39747890e-04	7.87107630e-04	3.14110080e-04	0.00000000e+00
6.375           	1.01699360e-01	4.40209270e-04	7.87566580e-04	3.04337010e-04	0.00000000e+00
6.38            	1.46856710e-01	4.40663190e-04	7.88015750e-04	3.20741540e-04	0.00000000e+00
6.385           	5.24357870e-02	4.41109670e-04	7.88455130e-04	3.21853940e-04	0.00000000e+00
6.39            	9.00317600e-02	4.41548720e-04	7.88884760e-04	3.05663110e-04	0.00000000e+00
6.395           	7.37180680e-02	4.41980320e-04	7.89304530e-04	3.04403610e-04	0.00000000e+00
6.4             	1.21237880e-01	4.42404510e-04	7.89714530e-04	3.17832220e-04	0.00000000e+00
6.405           	2.32839730e-01	4.42821330e-04	7.90114750e-04	3.23961890e-04	0.00000000e+00
6.41            	4.79004630e-02	4.43230740e-04	7.90505130e-04	3.06368130e-04	0.00000000e+00
6.415           	6.52557270e-02	4.43632810e-04	7.90885740e-04	3.08308500e-04	0.00000000e+00
6.42            	7.36291730e-02	4.44027510e-04	7.91256530e-04	3.13301300e-04	0.00000000e+00
6.425           	1.49600730e-01	4.44414870e-04	7.91617500e-04	3.14394480e-04	0.00000000e+00
6.43            	4.94817700e-02	4.44794910e-04	7.91968660e-04	2.97274590e-04	0.00000000e+00
6.435           	2.31766970e-01	4.45167620e-04	7.92309970e-04	3.16671140e-04	0.00000000e+00
6.44            	8.60870870e-02	4.45533060e-04	7.92641520e-04	2.98459040e-04	0.00000000e+00
6.445           	1.54188170e-01	4.45891200e-04	7.92963230e-04	3.21598770e-04	0.00000000e+00
6.45            	1.00926390e-01	4.46242080e-04	7.93275120e-04	3.06493170e-04	0.00000000e+00
6.455           	1.92826880e-01	4.46585710e-04	7.93577190e-04	3.22898120e-04	0.00000000e+00
6.46            	5.82597450e-02	4.46922080e-04	7.93869400e-04	3.10432610e-04	0.00000000e+00
6.465           	4.89503980e-02	4.47251240e-04	7.94151810e-04	3.11098920e-04	0.00000000e+00
6.47            	5.34432980e-02	4.47573200e-04	7.94424390e-04	3.15606240e-04	0.00000000e+00
6.475           	2.69988170e-01	4.47887960e-04	7.94687160e-04	3.21805000e-04	0.00000000e+00
6.48            	7.60657910e-02	4.48195540e-04	7.94940090e-04	3.17686800e-04	0.00000000e+00
6.485           	5.81013550e-02	4.48495960e-04	7.95183190e-04	3.15028720e-04	0.00000000e+00
6.49            	1.81605400e-01	4.48789240e-04	7.95416490e-04	3.19880700e-04	0.00000000e+00
6.495           	7.56401950e-02	4.49075380e-04	7.95639940e-04	3.29729420e-04	0.00000000e+00
6.5             	5.56158900e-02	4.49354380e-04	7.95853530e-04	3.04833030e-04	0.00000000e+00
6.505           	6.88405600e-02	4.49626290e-04	7.96057290e-04	3.15210410e-04	0.00000000e+00
6.51            	8.96642080e-02	4.49891110e-04	7.96251230e-04	3.12180190e-04	0.00000000e+00
6.515           	5.60888200e-02	4.50148870e-04	7.96435360e-04	3.02087100e-04	0.00000000e+00
6.52            	6.73510730e-02	4.50399550e-04	7.96609620e-04	3.13811910e-04	0.00000000e+00
6.525           	7.70425610e-02	4.50643210e-04	7.96774070e-04	3.16237300e-04	0.00000000e+00
6.53            	8.55521330e-02	4.50879820e-04	7.96928650e-04	3.20722870e-04	0.00000000e+00
6.535           	1.71448350e-01	4.51109420e-04	7.97073410e-04	2.97486470e-04	0.00000000e+00
6.54            	1.67588300e-01	4.51332040e-04	7.97208370e-04	3.06988490e-04	0.00000000e+00
6.545           	1.57828620e-01	4.51547650e-04	7.97333440e-04	3.16043120e-04	0.00000000e+00
6.55            	6.93388880e-02	4.51756310e-04	7.97448700e-04	3.03273530e-04	0.00000000e+00
6.555           	7.22542660e-02	4.51958020e-04	7.97554120e-04	3.37425420e-04	0.00000000e+00
6.56            	5.89344260e-02	4.52152790e-04	7.97649720e-04	3.38533120e-04	0.00000000e+00
6.565           	1.02247050e-01	4.52340660e-04	7.97735500e-04	3.25444990e-04	0.00000000e+00
6.57            	1.64987160e-01	4.52521600e-04	7.97811410e-04	3.20754370e-04	0.00000000e+00
6.575           	1.21299580e-01	4.52695670e-04	7.97877520e-04	3.21645870e-04	0.00000000e+00
6.58            	2.65680940e-01	4.52862850e-04	7.97933770e-04	3.41005200e-04	0.00000000e+00
6.585           	6.62295310e-02	4.53023190e-04	7.97980220e-04	3.39381990e-04	0.00000000e+00
6.59            	9.02105370e-02	4.53176670e-04	7.98016810e-04	3.38241360e-04	0.00000000e+00
6.595           	8.46666920e-02	4.53323350e-04	7.98043610e-04	3.34154650e-04	0.00000000e+00
6.6             	1.74202130e-01	4.53463200e-04	7.98060540e-04	3.44064940e-04	0.00000000e+00
6.605           	7.88993950e-02	4.53596260e-04	7.98067660e-04	3.26078340e-04	0.00000000e+00
6.61            	7.70497010e-02	4.53722540e-04	7.98063050e-04	3.33111270e-04	0.00000000e+00
6.615           	6.14267000e-02	4.53842070e-04	7.98047530e-04	3.44444900e-04	0.00000000e+00
6.62            	5.93469750e-02	4.53954850e-04	7.98022200e-04	3.28129830e-04	0.00000000e+00
6.625           	7.65255600e-02	4.54060900e-04	7.97987040e-04	3.24734200e-04	0.00000000e+00
6.63            	8.08397080e-02	4.54160240e-04	7.97942070e-04	3.43865850e-04	0.00000000e+00
6.635           	5.77487910e-02	4.54252900e-04	7.97887310e-04	3.33134040e-04	0.00000000e+00
6.64            	1.23906330e-01	4.54338870e-04	7.97822720e-04	3.40649810e-04	0.00000000e+00
6.645           	1.06242430e-01	4.54418150e-04	7.97748290e-04	3.29216180e-04	0.00000000e+00
6.65            	4.50023360e-02	4.54490800e-04	7.97664070e-04	3.42683960e-04	0.00000000e+00
6.655           	7.68765460e-02	4.54556840e-04	7.97570080e-04	3.36882360e-04	0.00000000e+00
6.66            	6.43358840e-02	4.54616230e-04	7.97466240e-04	3.19096580e-04	0.00000000e+00
6.665           	7.46676330e-02	4.54669050e-04	7.97352650e-04	3.48574630e-04	0.00000000e+00
6.67            	4.96864790e-02	4.54715290e-04	7.97229250e-04	3.47343620e-04	0.00000000e+00
6.675           	1.03617280e-01	4.54754950e-04	7.97095780e-04	3.54354370e-04	0.00000000e+00
6.68            	1.62702810e-01	4.54788060e-04	7.96949770e-04	3.55613330e-04	0.00000000e+00
6.685           	6.17250230e-02	4.54814630e-04	7.96793960e-04	3.35262640e-04	0.00000000e+00
6.69            	7.15720610e-02	4.54834700e-04	7.96628380e-04	3.45864820e-04	0.00000000e+00
6.695           	7.72862400e-02	4.54848280e-04	7.96453060e-04	3.40358640e-04	0.00000000e+00
6.7             	6.38817330e-02	4.54855370e-04	7.96267950e-04	3.44433380e-04	0.00000000e+00
6.705           	7.29565880e-02	4.54855990e-04	7.96073060e-04	3.44605490e-04	0.00000000e+00
6.71            	4.94837730e-02	4.54850150e-04	7.95868390e-04	3.42657420e-04	0.00000000e+00
6.715           	8.79264850e-02	4.54837890e-04	7.95653980e-04	3.40579430e-04	0.00000000e+00
6.72            	7.33672980e-02	4.54819220e-04	7.95429810e-04	3.39971640e-04	0.00000000e+00
6.725           	2.26123420e-01	4.54794170e-04	7.95195930e-04	3.30261440e-04	0.00000000e+00
6.73            	8.28029430e-02	4.54762710e-04	7.94952260e-04	3.33797580e-04	0.00000000e+00
6.735           	8.41882630e-02	4.54724900e-04	7.94698860e-04	3.27582220e-04	0.00000000e+00
6.74            	1.89727260e-01	4.54680750e-04	7.94435750e-04	3.34596220e-04	0.00000000e+00
6.745           	4.67689540e-02	4.54630250e-04	7.94162880e-04	3.38250850e-04	0.00000000e+00
6.75            	1.38379040e-01	4.54573470e-04	7.93880320e-04	3.34477660e-04	0.00000000e+00
6.755           	8.09713400e-02	4.54510370e-04	7.93588030e-04	3.34133260e-04	0.00000000e+00
6.76            	5.00886320e-02	4.54441000e-04	7.93286030e-04	3.28054150e-04	0.00000000e+00
6.765           	8.31081370e-02	4.54365370e-04	7.92974310e-04	3.41026780e-04	0.00000000e+00
6.77            	6.34208810e-02	4.54283480e-04	7.92652870e-04	3.25495980e-04	0.00000000e+00
6.775           	3.24956350e-02	4.54195380e-04	7.92321760e-04	3.15568760e-04	0.00000000e+00
6.78            	5.25628790e-02	4.54101060e-04	7.91980960e-04	3.15559320e-04	0.00000000e+00
6.785           	1.90872890e-01	4.54000560e-04	7.91630490e-04	3.21888220e-04	0.00000000e+00
6.79            	4.08017640e-02	4.53893880e-04	7.91270340e-04	3.09966460e-04	0.00000000e+00
6.795           	7.96090980e-02	4.53781070e-04	7.90900540e-04	3.05629070e-04	0.00000000e+00
6.8             	8.04176710e-02	4.53662100e-04	7.90521070e-04	3.02182690e-04	0.00000000e+00
6.805           	7.44239170e-02	4.53537010e-04	7.90131940e-04	3.30414950e-04	0.00000000e+00
6.81            	1.32607960e-01	4.53405790e-04	7.89733140e-04	3.17491780e-04	0.00000000e+00
6.815           	8.11928420e-02	4.53268510e-04	7.89324710e-04	3.19006770e-04	0.00000000e+00
6.82            	1.77325720e-01	4.53125150e-04	7.88906660e-04	3.20608320e-04	0.00000000e+00
6.825           	6.58900610e-02	4.52975740e-04	7.88478990e-04	3.27992490e-04	0.00000000e+00
6.83            	6.66653310e-02	4.52820320e-04	7.88041720e-04	3.30280150e-04	0.00000000e+00
6.835           	2.08293720e-01	4.52658850e-04	7.87594800e-04	3.14220440e-04	0.00000000e+00
6.84            	5.61947600e-02	4.52491410e-04	7.87138320e-04	3.31872790e-04	0.00000000e+00
6.845           	1.10824180e-01	4.52317970e-04	7.86672210e-04	3.19123980e-04	0.00000000e+00
6.85            	2.48599940e-01	4.52138580e-04	7.86196550e-04	3.08167000e-04	0.00000000e+00
6.855           	4.71385470e-02	4.51953220e-04	7.85711280e-04	3.11454080e-04	0.00000000e+00
6.86            	9.03861690e-02	4.51761960e-04	7.85216480e-04	3.16737740e-04	0.00000000e+00
6.865           	8.42005070e-02	4.51564790e-04	7.84712100e-04	3.15096470e-04	0.00000000e+00
6.87            	1.37007160e-01	4.51361700e-04	7.84198150e-04	3.18669740e-04	0.00000000e+00
6.875           	2.14556770e-01	4.51152760e-04	7.83674700e-04	3.18563290e-04	0.00000000e+00
6.88            	7.42727120e-02	4.50937950e-04	7.83141680e-04	3.20390990e-04	0.00000000e+00
6.885           	6.96811010e-02	4.50717300e-04	7.82599140e-04	3.12948960e-04	0.00000000e+00
6.89            	8.21969140e-02	4.50490850e-04	7.82047130e-04	3.12733610e-04	0.00000000e+00
6.895           	1.04445910e-01	4.50258590e-04	7.81485600e-04	3.15274710e-04	0.00000000e+00
6.9             	6.91752280e-02	4.50020550e-04	7.80914570e-04	3.21999500e-04	0.00000000e+00
6.905           	2.73172950e-01	4.49776730e-04	7.80334050e-04	3.28874420e-04	0.00000000e+00
6.91            	7.57112940e-02	4.49527150e-04	7.79744040e-04	3.22267160e-04	0.00000000e+00
6.915           	8.15908060e-02	4.49271860e-04	7.79144580e-04	3.34345870e-04	0.00000000e+00
6.92            	6.15447320e-02	4.49010850e-04	7.78535670e-04	3.29595620e-04	0.00000000e+00
6.925           	7.88113330e-02	4.48744150e-04	7.77917320e-04	3.25406430e-04	0.00000000e+00
6.93            	1.64564570e-01	4.48471790e-04	7.77289570e-04	3.24419680e-04	0.00000000e+00
6.935           	2.71509290e-01	4.48193740e-04	7.76652350e-04	3.25092520e-04	0.00000000e+00
6.94            	6.29917920e-02	4.47910080e-04	7.76005760e-04	3.05762200e-04	0.00000000e+00
6.945           	2.48959900e-01	4.47620790e-04	7.75349760e-04	3.08358800e-04	0.00000000e+00
6.95            	8.60150860e-02	4.47325880e-04	7.74684340e-04	3.12847750e-04	0.00000000e+00
6.955           	6.70610010e-02	4.47025390e-04	7.74009560e-04	3.22304170e-04	0.00000000e+00
6.96            	5.46544470e-02	4.46719340e-04	7.73325420e-04	3.14806440e-04	0.00000000e+00
6.965           	6.05964280e-02	4.46407750e-04	7.72631940e-04	2.98561210e-04	0.00000000e+00
6.97            	4.90739970e-02	4.46090620e-04	7.71929110e-04	3.15648810e-04	0.00000000e+00
6.975           	2.27576620e-01	4.45767990e-04	7.71216980e-04	3.17511560e-04	0.00000000e+00
6.98            	9.60818160e-02	4.45439850e-04	7.70495490e-04	3.05762260e-04	0.00000000e+00
6.985           	1.00711460e-01	4.45106260e-04	7.69764740e-04	3.19782220e-04	0.00000000e+00
6.99            	4.82371850e-02	4.44767190e-04	7.69024680e-04	3.08751400e-04	0.00000000e+00
6.995           	6.91546920e-02	4.44422690e-04	7.68275340e-04	3.29014080e-04	0.00000000e+00
7               	4.83313620e-02	4.44072770e-04	7.67516730e-04	3.06592480e-04	0.00000000e+00
7.005           	6.30060000e-02	4.43717430e-04	7.66748840e-04	3.08137780e-04	0.00000000e+00
7.01            	7.43913750e-02	4.43356740e-04	7.65971760e-04	3.01757430e-04	0.00000000e+00
7.015           	5.01342800e-02	4.42990670e-04	7.65185440e-04	3.01006940e-04	0.00000000e+00
7.02            	7.27246610e-02	4.42619250e-04	7.64389900e-04	3.22729130e-04	0.00000000e+00
7.025           	2.21453000e-01	4.42242510e-04	7.63585170e-04	3.11617710e-04	0.00000000e+00
7.03            	1.94604960e-01	4.41860440e-04	7.62771220e-04	3.06045300e-04	0.00000000e+00
7.035           	6.42573730e-02	4.41473100e-04	7.61948140e-04	3.07256270e-04	0.00000000e+00
7.04            	6.47357820e-02	4.41080490e-04	7.61115900e-04	3.12513630e-04	0.00000000e+00
7.045           	5.76982570e-02	4.40682610e-04	7.60274490e-04	2.96871550e-04	0.00000000e+00
7.05            	1.80141380e-01	4.40279510e-04	7.59423990e-04	3.22238000e-04	0.00000000e+00
7.055           	6.47312540e-02	4.39871200e-04	7.58564360e-04	3.11856420e-04	0.00000000e+00
7.06            	5.65905300e-02	4.39457660e-04	7.57695610e-04	3.02521280e-04	0.00000000e+00
7.065           	1.15667990e-01	4.39038980e-04	7.56817810e-04	3.08898590e-04	0.00000000e+00
7.07            	3.03465270e-01	4.38615110e-04	7.55930910e-04	3.10158120e-04	0.00000000e+00
7.075           	1.01741900e-01	4.38186100e-04	7.55034970e-04	2.99006540e-04	0.00000000e+00
7.08            	1.45019070e-01	4.37751990e-04	7.54130030e-04	3.11205940e-04	0.00000000e+00
7.085           	6.44750520e-02	4.37312770e-04	7.53216040e-04	2.81855640e-04	0.00000000e+00
7.09            	2.01174190e-01	4.36868460e-04	7.52293050e-04	2.98483670e-04	0.00000000e+00
7.095           	7.05405840e-02	4.36419080e-04	7.51361060e-04	3.15363510e-04	0.00000000e+00
7.1             	1.22605640e-01	4.35964640e-04	7.50420070e-04	3.11933180e-04	0.00000000e+00
7.105           	7.00533210e-02	4.35505190e-04	7.49470170e-04	3.09350520e-04	0.00000000e+00
7.11            	2.07554460e-01	4.35040720e-04	7.48511320e-04	3.12850500e-04	0.00000000e+00
7.115           	5.92905740e-02	4.34571250e-04	7.47543510e-04	3.24310920e-04	0.00000000e+00
7.12            	6.51873300e-02	4.34096820e-04	7.46566830e-04	3.22995200e-04	0.00000000e+00
7.125           	1.30584370e-01	4.33617420e-04	7.45581230e-04	3.22261750e-04	0.00000000e+00
7.13            	8.96343730e-02	4.33133090e-04	7.44586770e-04	3.25493910e-04	0.00000000e+00
7.135           	6.35437620e-02	4.32643840e-04	7.43583450e-04	3.12901390e-04	0.00000000e+00
7.14            	6.03297020e-02	4.32149700e-04	7.42571300e-04	3.23526100e-04	0.00000000e+00
7.145           	2.08324260e-01	4.31650690e-04	7.41550360e-04	3.10294110e-04	0.00000000e+00
7.15            	1.30564880e-01	4.31146800e-04	7.40520560e-04	3.22419590e-04	0.00000000e+00
7.155           	7.02517870e-02	4.30638080e-04	7.39482020e-04	3.17974270e-04	0.00000000e+00
7.16            	7.03109010e-02	4.30124520e-04	7.38434680e-04	3.23487550e-04	0.00000000e+00
7.165           	1.64390290e-01	4.29606180e-04	7.37378620e-04	3.23737180e-04	0.00000000e+00
7.17            	1.84777250e-01	4.29083030e-04	7.36313790e-04	3.24471550e-04	0.00000000e+00
7.175           	5.28753570e-02	4.28555130e-04	7.35240290e-04	3.18801340e-04	0.00000000e+00
7.18            	7.95222520e-02	4.28022460e-04	7.34158060e-04	3.34754540e-04	0.00000000e+00
7.185           	2.61669230e-01	4.27485090e-04	7.33067200e-04	3.53545580e-04	0.00000000e+00
7.19            	5.62545800e-02	4.26943000e-04	7.31967660e-04	3.34615370e-04	0.00000000e+00
7.195           	1.71656760e-01	4.26396210e-04	7.30859490e-04	3.48987360e-04	0.00000000e+00
7.2             	3.13150680e-01	4.25844740e-04	7.29742670e-04	3.49540940e-04	0.00000000e+00
7.205           	1.37813950e-01	4.25288620e-04	7.28617270e-04	3.49783420e-04	0.00000000e+00
7.21            	1.04254450e-01	4.24727860e-04	7.27483300e-04	3.38748560e-04	0.00000000e+00
7.215           	9.33242500e-02	4.24162500e-04	7.26340770e-04	3.33911100e-04	0.00000000e+00
7.22            	8.19219820e-02	4.23592530e-04	7.25189710e-04	3.46987050e-04	0.00000000e+00
7.225           	9.74659900e-02	4.23018000e-04	7.24030160e-04	3.44872790e-04	0.00000000e+00
7.23            	9.75322430e-02	4.22438900e-04	7.22862100e-04	3.35477390e-04	0.00000000e+00
7.235           	3.94201610e-02	4.21855240e-04	7.21685530e-04	3.43375460e-04	0.00000000e+00
7.24            	6.66218150e-02	4.21267090e-04	7.20500540e-04	3.43770100e-04	0.00000000e+00
7.245           	1.98624350e-01	4.20674400e-04	7.19307090e-04	3.27212200e-04	0.00000000e+00
7.25            	7.01924640e-02	4.20077260e-04	7.18105260e-04	3.21612600e-04	0.00000000e+00
7.255           	1.32488600e-01	4.19475620e-04	7.16895000e-04	3.16532760e-04	0.00000000e+00
7.26            	7.40069950e-02	4.18869570e-04	7.15676410e-04	3.30094590e-04	0.00000000e+00
7.265           	7.62896400e-02	4.18259060e-04	7.14449430e-04	3.25887290e-04	0.00000000e+00
7.27            	1.45868540e-01	4.17644150e-04	7.13214140e-04	3.14945320e-04	0.00000000e+00
7.275           	6.11074520e-02	4.17024860e-04	7.11970570e-04	3.20195400e-04	0.00000000e+00
7.28            	6.32769050e-02	4.16401200e-04	7.10718710e-04	2.97521910e-04	0.00000000e+00
7.285           	8.39114640e-02	4.15773160e-04	7.09458550e-04	3.34033590e-04	0.00000000e+00
7.29            	8.83043370e-02	4.15140820e-04	7.08190200e-04	3.13127470e-04	0.00000000e+00
7.295           	1.03235110e-01	4.14504130e-04	7.06913600e-04	3.07032160e-04	0.00000000e+00
7.3             	4.97648690e-02	4.13863180e-04	7.05628840e-04	3.14219290e-04	0.00000000e+00
7.305           	3.44733660e-02	4.13217940e-04	7.04335910e-04	2.91465740e-04	0.00000000e+00
7.31            	1.98259010e-01	4.12568430e-04	7.03034820e-04	3.24555240e-04	0.00000000e+00
7.315           	9.25651760e-02	4.11914690e-04	7.01725610e-04	3.07084150e-04	0.00000000e+00
7.32            	8.88586830e-02	4.11256710e-04	7.00408270e-04	3.14268020e-04	0.00000000e+00
7.325           	1.50209720e-01	4.10594530e-04	6.99082870e-04	3.19110660e-04	0.00000000e+00
7.33            	2.74061120e-01	4.09928200e-04	6.97749450e-04	3.32773190e-04	0.00000000e+00
7.335           	5.84506400e-02	4.09257670e-04	6.96407970e-04	3.16663070e-04	0.00000000e+00
7.34            	1.98910470e-01	4.08583020e-04	6.95058520e-04	3.14626660e-04	0.00000000e+00
7.345           	9.64550400e-02	4.07904220e-04	6.93701050e-04	3.12365670e-04	0.00000000e+00
7.35            	1.09170560e-01	4.07221310e-04	6.92335640e-04	3.16699650e-04	0.00000000e+00
7.355           	2.56173970e-01	4.06534340e-04	6.90962330e-04	3.11673760e-04	0.00000000e+00
7.36            	1.25578210e-01	4.05843290e-04	6.89581090e-04	3.20987440e-04	0.00000000e+00
7.365           	7.28709620e-02	4.05148180e-04	6.88191970e-04	3.05331810e-04	0.00000000e+00
7.37            	1.63660460e-01	4.04449020e-04	6.86794970e-04	3.15451640e-04	0.00000000e+00
7.375           	9.22988490e-02	4.03745870e-04	6.85390180e-04	3.09804030e-04	0.00000000e+00
7.38            	1.06386230e-01	4.03038720e-04	6.83977580e-04	3.09001630e-04	0.00000000e+00
7.385           	3.32439360e-01	4.02327580e-04	6.82557190e-04	3.16347130e-04	0.00000000e+00
7.39            	1.05778950e-01	4.01612490e-04	6.81129050e-04	3.15999940e-04	0.00000000e+00
7.395           	1.71803070e-01	4.00893440e-04	6.79693150e-04	3.31499610e-04	0.00000000e+00
7.4             	1.13337670e-01	4.00170500e-04	6.78249590e-04	3.18054070e-04	0.00000000e+00
7.405           	9.67538820e-02	3.99443640e-04	6.76798320e-04	3.06907040e-04	0.00000000e+00
7.41            	1.13281080e-01	3.98712890e-04	6.75339420e-04	3.08193020e-04	0.00000000e+00
7.415           	7.76591370e-02	3.97978290e-04	6.73872900e-04	3.08150120e-04	0.00000000e+00
7.42            	8.31844160e-02	3.97239850e-04	6.72398810e-04	2.97179640e-04	0.00000000e+00
7.425           	2.18274130e-01	3.96497560e-04	6.70917110e-04	3.19714880e-04	0.00000000e+00
7.43            	8.63286700e-02	3.95751490e-04	6.69427910e-04	3.08932480e-04	0.00000000e+00
7.435           	5.48175020e-02	3.95001610e-04	6.67931180e-04	3.25099600e-04	0.00000000e+00
7.44            	1.11959080e-01	3.94247960e-04	6.66426960e-04	3.02965770e-04	0.00000000e+00
7.445           	8.84991240e-02	3.93490560e-04	6.64915280e-04	2.91289780e-04	0.00000000e+00
7.45            	2.15620480e-01	3.92729420e-04	6.63396170e-04	2.94696970e-04	0.00000000e+00
7.455           	7.77341260e-02	3.91964570e-04	6.61869650e-04	2.89000160e-04	0.00000000e+00
7.46            	8.54035950e-02	3.91196000e-04	6.60335730e-04	2.79980440e-04	0.00000000e+00
7.465           	1.06981490e-01	3.90423780e-04	6.58794510e-04	2.90677980e-04	0.00000000e+00
7.47            	2.02564690e-01	3.89647870e-04	6.57245920e-04	3.00900590e-04	0.00000000e+00
7.475           	4.21112390e-02	3.88868330e-04	6.55690070e-04	2.61762720e-04	0.00000000e+00
7.48            	6.65493810e-02	3.88085170e-04	6.54126950e-04	2.79856790e-04	0.00000000e+00
7.485           	1.99575770e-01	3.87298410e-04	6.52556610e-04	2.76397960e-04	0.00000000e+00
7.49            	2.49242870e-01	3.86508060e-04	6.50979060e-04	2.80642900e-04	0.00000000e+00
7.495           	6.53422350e-02	3.85714160e-04	6.49394370e-04	2.89761400e-04	0.00000000e+00
7.5             	7.70929830e-02	3.84916680e-04	6.47802480e-04	2.58812250e-04	0.00000000e+00
7.505           	1.78909120e-01	3.84115680e-04	6.46203490e-04	2.59701280e-04	0.00000000e+00
7.51            	5.28559080e-02	3.83311180e-04	6.44597440e-04	2.64205390e-04	0.00000000e+00
7.515           	6.43536800e-02	3.82503160e-04	6.42984290e-04	2.69322540e-04	0.00000000e+00
7.52            	7.18889390e-02	3.81691680e-04	6.41364130e-04	2.62170740e-04	0.00000000e+00
7.525           	7.96450140e-02	3.80876760e-04	6.39737010e-04	2.81450080e-04	0.00000000e+00
7.53            	2.09015280e-01	3.80058370e-04	6.38102870e-04	2.59667950e-04	0.00000000e+00
7.535           	6.73700050e-02	3.79236580e-04	6.36461830e-04	2.70886820e-04	0.00000000e+00
7.54            	2.16885320e-01	3.78411370e-04	6.34813850e-04	2.58793620e-04	0.00000000e+00
7.545           	6.43277590e-02	3.77582780e-04	6.33159010e-04	2.79536190e-04	0.00000000e+00
7.55            	1.82880060e-01	3.76750840e-04	6.31497360e-04	2.54214990e-04	0.00000000e+00
7.555           	7.35910760e-02	3.75915530e-04	6.29828840e-04	2.82170410e-04	0.00000000e+00
7.56            	9.38292960e-02	3.75076900e-04	6.28153560e-04	2.33406910e-04	0.00000000e+00
7.565           	7.13084060e-02	3.74234970e-04	6.26471560e-04	2.42761740e-04	0.00000000e+00
7.57            	1.38710450e-01	3.73389740e-04	6.24782820e-04	2.65610340e-04	0.00000000e+00
7.575           	3.83016800e-02	3.72541220e-04	6.23087360e-04	2.39446370e-04	0.00000000e+00
7.58            	1.78215260e-01	3.71689450e-04	6.21385260e-04	2.62482330e-04	0.00000000e+00
7.585           	2.35739910e-01	3.70834450e-04	6.19676540e-04	2.26794130e-04	0.00000000e+00
7.59            	6.46867670e-02	3.69976240e-04	6.17961260e-04	2.51467020e-04	0.00000000e+00
7.595           	1.48035760e-01	3.69114830e-04	6.16239400e-04	2.10528900e-04	0.00000000e+00
7.6             	1.44046640e-01	3.68250200e-04	6.14510980e-04	2.35231890e-04	0.00000000e+00
7.605           	3.48962600e-02	3.67382420e-04	6.12776080e-04	2.00101470e-04	0.00000000e+00
7.61            	2.54317660e-01	3.66511500e-04	6.11034720e-04	1.97696160e-04	0.00000000e+00
7.615           	5.88629070e-02	3.65637470e-04	6.09286960e-04	1.81199300e-04	0.00000000e+00
7.62            	1.46417710e-01	3.64760300e-04	6.07532750e-04	1.95096760e-04	0.00000000e+00
7.625           	2.49567400e-01	3.63880040e-04	6.05772200e-04	1.87041820e-04	0.00000000e+00
7.63            	1.22739450e-01	3.62996700e-04	6.04005320e-04	1.70777190e-04	0.00000000e+00
7.635           	1.16606770e-01	3.62110330e-04	6.02232170e-04	1.78998790e-04	0.00000000e+00
7.64            	1.04459010e-01	3.61220910e-04	6.00452730e-04	1.75661170e-04	0.00000000e+00
7.645           	6.49594170e-02	3.60328450e-04	5.98667030e-04	1.90990810e-04	0.00000000e+00
7.65            	1.28074060e-01	3.59432990e-04	5.96875150e-04	2.07786400e-04	0.00000000e+00
7.655           	7.54121840e-02	3.58534550e-04	5.95077110e-04	1.78237590e-04	0.00000000e+00
7.66            	2.48170240e-01	3.57633160e-04	5.93272970e-04	1.76412830e-04	0.00000000e+00
7.665           	5.74535150e-02	3.56728790e-04	5.91462690e-04	1.89181150e-04	0.00000000e+00
7.67            	6.65742460e-02	3.55821500e-04	5.89646360e-04	1.90026240e-04	0.00000000e+00
7.675           	2.07584470e-01	3.54911320e-04	5.87824030e-04	1.71887140e-04	0.00000000e+00
7.68            	8.36498610e-02	3.53998220e-04	5.85995700e-04	1.71702440e-04	0.00000000e+00
7.685           	2.01719680e-01	3.53082230e-04	5.84161370e-04	1.85177760e-04	0.00000000e+00
7.69            	1.87991930e-01	3.52163410e-04	5.82321160e-04	1.79256320e-04	0.00000000e+00
7.695           	7.87810660e-02	3.51241730e-04	5.80475050e-04	1.70943260e-04	0.00000000e+00
7.7             	9.37444880e-02	3.50317210e-04	5.78623060e-04	1.78165530e-04	0.00000000e+00
7.705           	9.75640980e-02	3.49389890e-04	5.76765260e-04	1.91152780e-04	0.00000000e+00
7.71            	1.34719740e-01	3.48459780e-04	5.74901690e-04	2.10762140e-04	0.00000000e+00
7.715           	1.31574710e-01	3.47526910e-04	5.73032370e-04	1.83221450e-04	0.00000000e+00
7.72            	5.19758940e-02	3.46591300e-04	5.71157370e-04	1.78434830e-04	0.00000000e+00
7.725           	7.56263400e-02	3.45652930e-04	5.69276670e-04	1.60148670e-04	0.00000000e+00
7.73            	1.09855550e-01	3.44711830e-04	5.67390290e-04	2.10850350e-04	0.00000000e+00
7.735           	1.28996330e-01	3.43768040e-04	5.65498330e-04	1.94208120e-04	0.00000000e+00
7.74            	5.74984800e-02	3.42821560e-04	5.63600810e-04	2.04087060e-04	0.00000000e+00
7.745           	4.23474040e-02	3.41872440e-04	5.61697780e-04	1.54824460e-04	0.00000000e+00
7.75            	9.76010910e-02	3.40920660e-04	5.59789240e-04	1.54210830e-04	0.00000000e+00
7.755           	9.87945840e-02	3.39966240e-04	5.57875230e-04	1.74401340e-04	0.00000000e+00
7.76            	3.32837900e-01	3.39009190e-04	5.55955760e-04	2.05580510e-04	0.00000000e+00
7.765           	6.81377260e-02	3.38049550e-04	5.54030930e-04	2.05161070e-04	0.00000000e+00
7.77            	8.43246060e-02	3.37087340e-04	5.52100750e-04	2.13179190e-04	0.00000000e+00
7.775           	1.07542180e-01	3.36122580e-04	5.50165290e-04	1.99010060e-04	0.00000000e+00
7.78            	1.21285520e-01	3.35155250e-04	5.48224500e-04	2.04992370e-04	0.00000000e+00
7.785           	9.22801160e-02	3.34185400e-04	5.46278490e-04	1.56672300e-04	0.00000000e+00
7.79            	1.09330910e-01	3.33213060e-04	5.44327310e-04	1.26769190e-04	0.00000000e+00
7.795           	1.53694370e-01	3.32238200e-04	5.42370920e-04	1.29325610e-04	0.00000000e+00
7.8             	2.57577590e-01	3.31260890e-04	5.40409440e-04	1.81438400e-04	0.00000000e+00
7.805           	1.38037060e-01	3.30281120e-04	5.38442850e-04	1.90334980e-04	0.00000000e+00
7.81            	1.49496250e-01	3.29298900e-04	5.36471210e-04	1.84259880e-04	0.00000000e+00
7.815           	6.72327760e-02	3.28314230e-04	5.34494520e-04	1.53433640e-04	0.00000000e+00
7.82            	9.21447720e-02	3.27327170e-04	5.32512880e-04	1.50914320e-04	0.00000000e+00
7.825           	1.98250260e-01	3.26337730e-04	5.30526300e-04	2.02765550e-04	0.00000000e+00
7.83            	7.16198220e-02	3.25345910e-04	5.28534820e-04	1.97284000e-04	0.00000000e+00
7.835           	9.66207800e-02	3.24351760e-04	5.26538500e-04	1.52519860e-04	0.00000000e+00
7.84            	1.53615370e-01	3.23355240e-04	5.24537320e-04	1.71934980e-04	0.00000000e+00
7.845           	7.42072550e-02	3.22356410e-04	5.22531360e-04	1.76286420e-04	0.00000000e+00
7.85            	1.17526870e-01	3.21355290e-04	5.20520680e-04	1.68128790e-04	0.00000000e+00
7.855           	7.56107550e-02	3.20351860e-04	5.18505250e-04	1.95581870e-04	0.00000000e+00
7.86            	7.36617670e-02	3.19346160e-04	5.16485160e-04	1.77148840e-04	0.00000000e+00
7.865           	1.94285190e-01	3.18338220e-04	5.14460450e-04	1.70480100e-04	0.00000000e+00
7.87            	2.43634740e-01	3.17328060e-04	5.12431170e-04	2.20996510e-04	0.00000000e+00
7.875           	1.05928510e-01	3.16315640e-04	5.10397280e-04	1.49980510e-04	0.00000000e+00
7.88            	1.33724480e-01	3.15301040e-04	5.08358900e-04	1.72341950e-04	0.00000000e+00
7.885           	4.31872920e-01	3.14284250e-04	5.06316040e-04	1.54275590e-04	0.00000000e+00
7.89            	1.74233730e-01	3.13265310e-04	5.04268780e-04	1.71540750e-04	0.00000000e+00
7.895           	6.35982590e-02	3.12244190e-04	5.02217070e-04	1.54618140e-04	0.00000000e+00
7.9             	7.37246280e-02	3.11220960e-04	5.00161040e-04	2.22920980e-04	0.00000000e+00
7.905           	2.95798270e-01	3.10195610e-04	4.98100680e-04	1.76721800e-04	0.00000000e+00
7.91            	1.12585370e-01	3.09168130e-04	4.96036010e-04	1.31381000e-04	0.00000000e+00
7.915           	9.30919320e-02	3.08138570e-04	4.93967110e-04	1.48307260e-04	0.00000000e+00
7.92            	1.05736180e-01	3.07106950e-04	4.91894020e-04	1.36693000e-04	0.00000000e+00
7.925           	4.96056090e-02	3.06073300e-04	4.89816800e-04	1.70952190e-04	0.00000000e+00
7.93            	6.16103620e-02	3.05037610e-04	4.87735440e-04	1.30009360e-04	0.00000000e+00
7.935           	3.67084980e-01	3.03999890e-04	4.85649990e-04	1.49982870e-04	0.00000000e+00
7.94            	1.64132050e-01	3.02960150e-04	4.83560470e-04	1.26205460e-04	0.00000000e+00
7.945           	6.66898810e-02	3.01918430e-04	4.81466970e-04	1.49468590e-04	0.00000000e+00
7.95            	8.91085580e-02	3.00874770e-04	4.79369540e-04	1.29218340e-04	0.00000000e+00
7.955           	1.28011260e-01	2.99829130e-04	4.77268150e-04	1.66253270e-04	0.00000000e+00
7.96            	1.72882960e-01	2.98781560e-04	4.75162900e-04	1.37788750e-04	0.00000000e+00
7.965           	3.12663240e-01	2.97732090e-04	4.73053830e-04	1.20916360e-04	0.00000000e+00
7.97            	6.64068900e-02	2.96680700e-04	4.70940920e-04	1.55554580e-04	0.00000000e+00
7.975           	1.57607290e-01	2.95627420e-04	4.68824270e-04	1.18666630e-04	0.00000000e+00
7.98            	8.95901720e-02	2.94572270e-04	4.66703900e-04	1.26918960e-04	0.00000000e+00
7.985           	9.51757040e-02	2.93515290e-04	4.64579890e-04	1.44353480e-04	0.00000000e+00
7.99            	3.36234560e-01	2.92456470e-04	4.62452220e-04	1.08427460e-04	0.00000000e+00
7.995           	4.07226180e-01	2.91395790e-04	4.60320920e-04	1.30049600e-04	0.00000000e+00
8               	1.61153480e-01	2.90333330e-04	4.58186090e-04	1.42744030e-04	0.00000000e+00
8.005           	1.26406470e-01	2.89269080e-04	4.56047750e-04	8.48244040e-05	0.00000000e+00
8.01            	1.86319290e-01	2.88203060e-04	4.53905930e-04	7.73905890e-05	0.00000000e+00
8.015           	6.99352550e-02	2.87135280e-04	4.51760690e-04	6.79904330e-05	0.00000000e+00
8.02            	8.76413790e-02	2.86065780e-04	4.49612080e-04	1.31811570e-04	0.00000000e+00
8.025           	8.78546180e-02	2.84994520e-04	4.47460080e-04	1.00622760e-04	0.00000000e+00
8.03            	1.06605850e-01	2.83921570e-04	4.45304790e-04	1.10768990e-04	0.00000000e+00
8.035           	1.43912090e-01	2.82846930e-04	4.43146230e-04	1.19740330e-04	0.00000000e+00
8.04            	6.57481720e-02	2.81770610e-04	4.40984450e-04	1.83286050e-04	0.00000000e+00
8.045           	2.18485640e-01	2.80692460e-04	4.38504680e-04	1.31279060e-04	0.00000000e+00
8.05            	1.32064700e-01	2.79612570e-04	4.36231660e-04	1.03901110e-04	0.00000000e+00
8.055           	7.39228680e-02	2.78530960e-04	4.34025650e-04	1.13063320e-04	0.00000000e+00
8.06            	3.40342180e-01	2.77447740e-04	4.31840050e-04	1.24156000e-04	0.00000000e+00
8.065           	1.39146840e-01	2.76362930e-04	4.29661340e-04	8.64952330e-05	0.00000000e+00
8.07            	1.66923380e-01	2.75276540e-04	4.27480980e-04	1.12232690e-04	0.00000000e+00
8.075           	1.84632390e-01	2.74188570e-04	4.25298150e-04	9.45019370e-05	0.00000000e+00
8.08            	1.60565990e-01	2.73099090e-04	4.23112620e-04	9.84822480e-05	0.00000000e+00
8.085           	1.49251050e-01	2.72008050e-04	4.20924330e-04	6.99521170e-05	0.00000000e+00
8.09            	2.74254200e-01	2.70915540e-04	4.18735990e-04	8.31404510e-05	0.00000000e+00
8.095           	2.26477660e-01	2.69821530e-04	4.16543130e-04	8.77032750e-05	0.00000000e+00
8.1             	1.49683620e-01	2.68726030e-04	4.14346970e-04	1.63951070e-04	0.00000000e+00
8.105           	5.75223840e-02	2.67629060e-04	4.12147960e-04	1.01303710e-04	0.00000000e+00
8.11            	9.28189430e-02	2.66530650e-04	4.09946270e-04	6.83659900e-05	0.00000000e+00
8.115           	1.25789670e-01	2.65430840e-04	4.07741980e-04	6.92880470e-05	0.00000000e+00
8.12            	3.95567770e-01	2.64329600e-04	4.05535150e-04	8.15232800e-05	0.00000000e+00
8.125           	1.46884300e-01	2.63226950e-04	4.03329450e-04	6.87539310e-05	0.00000000e+00
8.13            	8.75172730e-02	2.62122910e-04	4.01118890e-04	7.20091060e-05	0.00000000e+00
8.135           	3.94297530e-02	2.61017510e-04	3.98905120e-04	1.43698290e-04	0.00000000e+00
8.14            	4.91436770e-02	2.59910770e-04	3.96688710e-04	1.02343700e-04	0.00000000e+00
8.145           	7.43377470e-02	2.58802700e-04	3.94469880e-04	1.25377770e-04	0.00000000e+00
8.15            	9.70756580e-02	2.57693290e-04	3.92248740e-04	6.27962260e-05	0.00000000e+00
8.155           	1.59526870e-01	2.56582570e-04	3.90025340e-04	5.32266060e-05	0.00000000e+00
8.16            	6.50732940e-02	2.55470590e-04	3.87799740e-04	1.31297170e-04	0.00000000e+00
8.165           	8.47520260e-02	2.54357300e-04	3.85571990e-04	9.15453500e-05	0.00000000e+00
8.17            	8.70043970e-02	2.53242780e-04	3.83342120e-04	6.50146860e-05	0.00000000e+00
8.175           	1.00763630e-01	2.52127000e-04	3.81110170e-04	7.39786460e-05	0.00000000e+00
8.18            	1.35644490e-01	2.51009980e-04	3.78881070e-04	8.65178930e-05	0.00000000e+00
8.185           	6.53357510e-02	2.49891770e-04	3.76646730e-04	9.58287210e-05	0.00000000e+00
8.19            	3.50514810e-01	2.48772360e-04	3.74409360e-04	8.14859240e-05	0.00000000e+00
8.195           	1.35291760e-01	2.47651770e-04	3.72169730e-04	1.06662520e-04	0.00000000e+00
8.2             	2.90972220e-01	2.46530000e-04	3.69928100e-04	9.10166190e-05	0.00000000e+00
8.205           	8.99337120e-02	2.45407060e-04	3.67684620e-04	9.78102110e-05	0.00000000e+00
8.21            	9.65159120e-02	2.44283000e-04	3.65439340e-04	9.69611300e-05	0.00000000e+00
8.215           	1.85480300e-01	2.43157820e-04	3.63192320e-04	9.42187910e-05	0.00000000e+00
8.22            	2.36178210e-01	2.42031530e-04	3.60943610e-04	1.14652960e-04	0.00000000e+00
8.225           	8.19458870e-02	2.40904150e-04	3.58693250e-04	1.19737810e-04	0.00000000e+00
8.23            	2.33631730e-01	2.39775690e-04	3.56441280e-04	8.86865910e-05	0.00000000e+00
8.235           	7.64527560e-02	2.38646190e-04	3.54187740e-04	9.80432400e-05	0.00000000e+00
8.24            	1.17636440e-01	2.37515630e-04	3.51932680e-04	8.36834790e-05	0.00000000e+00
8.245           	7.51202200e-02	2.36384010e-04	3.49676150e-04	1.17517700e-04	0.00000000e+00
8.25            	7.35217660e-02	2.35251390e-04	3.47418180e-04	1.07521760e-04	0.00000000e+00
8.255           	1.56319010e-01	2.34117790e-04	3.45158810e-04	1.12287280e-04	0.00000000e+00
8.26            	3.36636360e-01	2.32983190e-04	3.42898100e-04	1.00267210e-04	0.00000000e+00
8.265           	2.33764760e-01	2.31847590e-04	3.40636070e-04	8.24325590e-05	0.00000000e+00
8.27            	1.42289410e-01	2.30711070e-04	3.38379370e-04	6.63248460e-05	0.00000000e+00
8.275           	2.59713970e-01	2.29573610e-04	3.36117050e-04	9.98525860e-05	0.00000000e+00
8.28            	1.35150610e-01	2.28435210e-04	3.33852070e-04	8.79269940e-05	0.00000000e+00
8.285           	1.09370180e-01	2.27295900e-04	3.31585460e-04	6.13197900e-05	0.00000000e+00
8.29            	8.39898180e-02	2.26155680e-04	3.29317580e-04	1.17060130e-04	0.00000000e+00
8.295           	1.34044220e-01	2.25014600e-04	3.27048580e-04	1.18428070e-04	0.00000000e+00
8.3             	1.74407100e-01	2.23872650e-04	3.24778560e-04	6.45443400e-05	0.00000000e+00
8.305           	1.08005930e-01	2.22729830e-04	3.22507560e-04	6.85378410e-05	0.00000000e+00
8.31            	1.22844160e-01	2.21586170e-04	3.20235620e-04	1.01556740e-04	0.00000000e+00
8.315           	3.15330470e-01	2.20441680e-04	3.17962800e-04	7.17821990e-05	0.00000000e+00
8.32            	1.09274730e-01	2.19296400e-04	3.15689140e-04	7.04264360e-05	0.00000000e+00
8.325           	8.98966800e-02	2.18150330e-04	3.13414670e-04	8.19497540e-05	0.00000000e+00
8.33            	2.84135260e-01	2.17003460e-04	3.11139440e-04	6.09762820e-05	0.00000000e+00
8.335           	1.20092000e-01	2.15855830e-04	3.08863500e-04	7.61179150e-05	0.00000000e+00
8.34            	1.01719530e-01	2.14707450e-04	3.06586890e-04	7.06214450e-05	0.00000000e+00
8.345           	1.88833320e-01	2.13558330e-04	3.04309650e-04	9.27774160e-05	0.00000000e+00
8.35            	1.10837220e-01	2.12408510e-04	3.02031810e-04	5.10528390e-05	0.00000000e+00
8.355           	2.02058720e-01	2.11257960e-04	2.99753430e-04	1.09139260e-04	0.00000000e+00
8.36            	1.82072610e-01	2.10106730e-04	2.97474550e-04	6.31884800e-05	0.00000000e+00
8.365           	9.85283770e-02	2.08954800e-04	2.95195210e-04	5.65167270e-05	0.00000000e+00
8.37            	7.21879120e-02	2.07802220e-04	2.92915440e-04	8.70452490e-05	0.00000000e+00
8.375           	6.50407520e-02	2.06648990e-04	2.90635300e-04	9.33638480e-05	0.00000000e+00
8.38            	1.74657690e-01	2.05495130e-04	2.88354820e-04	1.25538310e-04	0.00000000e+00
8.385           	6.22460320e-02	2.04340660e-04	2.86074050e-04	6.82853890e-05	0.00000000e+00
8.39            	1.55314080e-01	2.03185570e-04	2.83793020e-04	6.07487900e-05	0.00000000e+00
8.395           	3.11686430e-01	2.02029870e-04	2.81511790e-04	8.55579580e-05	0.00000000e+00
8.4             	9.99743550e-02	2.00873620e-04	2.79230390e-04	8.47137250e-05	0.00000000e+00
8.405           	5.10051440e-02	1.99716790e-04	2.76948860e-04	1.02904920e-04	0.00000000e+00
8.41            	1.08600210e-01	1.98559430e-04	2.74667250e-04	9.82329520e-05	0.00000000e+00
8.415           	7.85083650e-02	1.97401520e-04	2.72385600e-04	7.12251450e-05	0.00000000e+00
8.42            	5.77124870e-02	1.96243080e-04	2.70103940e-04	1.01408380e-04	0.00000000e+00
8.425           	1.36514540e-01	1.95084160e-04	2.67822330e-04	7.41272770e-05	0.00000000e+00
8.43            	3.86124650e-01	1.93924730e-04	2.65540800e-04	1.08065720e-04	0.00000000e+00
8.435           	1.36930800e-01	1.92764830e-04	2.63259390e-04	8.81886430e-05	0.00000000e+00
8.44            	2.94835650e-01	1.91604450e-04	2.60978140e-04	1.09808260e-04	0.00000000e+00
8.445           	8.15433980e-02	1.90443640e-04	2.58697110e-04	1.44078610e-04	0.00000000e+00
8.45            	2.18314930e-01	1.89282380e-04	2.56416320e-04	1.44280370e-04	0.00000000e+00
8.455           	1.84424670e-01	1.88120700e-04	2.54135820e-04	1.45562190e-04	0.00000000e+00
8.46            	1.22389150e-01	1.86958630e-04	2.51855650e-04	1.19358840e-04	0.00000000e+00
8.465           	5.98473230e-02	1.85796160e-04	2.49575850e-04	9.48661380e-05	0.00000000e+00
8.47            	7.31954370e-02	1.84633300e-04	2.47296460e-04	1.14997660e-04	0.00000000e+00
8.475           	2.51849650e-01	1.83470070e-04	2.45017530e-04	1.35006480e-04	0.00000000e+00
8.48            	3.16611500e-01	1.82306520e-04	2.42739090e-04	1.36492830e-04	0.00000000e+00
8.485           	1.42142390e-01	1.81142620e-04	2.40461180e-04	1.46880670e-04	0.00000000e+00
8.49            	2.25439930e-01	1.79978370e-04	2.38183860e-04	1.71946870e-04	0.00000000e+00
8.495           	1.27349200e-01	1.78813850e-04	2.35907140e-04	1.35403280e-04	0.00000000e+00
8.5             	1.17469150e-01	1.77649020e-04	2.33640110e-04	1.58896500e-04	0.00000000e+00
8.505           	1.56582340e-01	1.76483920e-04	2.31367730e-04	1.93382130e-04	0.00000000e+00
8.51            	2.77290070e-01	1.75318530e-04	2.29094070e-04	1.60321370e-04	0.00000000e+00
8.515           	4.85761160e-02	1.74152910e-04	2.26820510e-04	1.76022800e-04	0.00000000e+00
8.52            	9.72668730e-02	1.72987060e-04	2.24547540e-04	1.67832110e-04	0.00000000e+00
8.525           	1.46983750e-01	1.71820970e-04	2.22275340e-04	1.57016370e-04	0.00000000e+00
8.53            	3.05499430e-01	1.70654670e-04	2.20004010e-04	2.05563320e-04	0.00000000e+00
8.535           	2.61732770e-01	1.69488160e-04	2.17733610e-04	1.47544140e-04	0.00000000e+00
8.54            	9.63997580e-02	1.68321470e-04	2.15464190e-04	1.39190810e-04	0.00000000e+00
8.545           	1.31554880e-01	1.67154610e-04	2.13195770e-04	1.52402350e-04	0.00000000e+00
8.55            	2.81306720e-01	1.65987590e-04	2.10928420e-04	1.71845870e-04	0.00000000e+00
8.555           	1.74045830e-01	1.64820450e-04	2.08662160e-04	1.09870060e-04	0.00000000e+00
8.56            	7.89164520e-02	1.63653150e-04	2.06397030e-04	1.13352160e-04	0.00000000e+00
8.565           	1.67004350e-01	1.62485760e-04	2.04133090e-04	1.81443280e-04	0.00000000e+00
8.57            	1.33350220e-01	1.61318240e-04	2.01870350e-04	1.05908570e-04	0.00000000e+00
8.575           	9.58427730e-02	1.60150650e-04	1.99608880e-04	8.34229360e-05	0.00000000e+00
8.58            	6.93453520e-02	1.58982970e-04	1.97348700e-04	8.74366130e-05	0.00000000e+00
8.585           	1.98837070e-01	1.57815230e-04	1.95089850e-04	9.17424820e-05	0.00000000e+00
8.59            	1.02079590e-01	1.56647450e-04	1.92832380e-04	1.03829330e-04	0.00000000e+00
8.595           	1.37615480e-01	1.55479630e-04	1.90576310e-04	8.88114950e-05	0.00000000e+00
8.6             	9.31599750e-02	1.54311790e-04	1.88321700e-04	1.37222510e-04	0.00000000e+00
8.605           	2.62020650e-01	1.53143940e-04	1.86068590e-04	1.13807770e-04	0.00000000e+00
8.61            	2.42297690e-01	1.51976110e-04	1.83817000e-04	1.13166340e-04	0.00000000e+00
8.615           	1.39229790e-01	1.50808280e-04	1.81566980e-04	5.96763940e-05	0.00000000e+00
8.62            	1.59433410e-01	1.49640490e-04	1.79318560e-04	7.86298480e-05	0.00000000e+00
8.625           	1.35794110e-01	1.48472740e-04	1.77071790e-04	7.53215010e-05	0.00000000e+00
8.63            	1.28253390e-01	1.47305070e-04	1.74826710e-04	9.60195850e-05	0.00000000e+00
8.635           	2.75414470e-01	1.46137450e-04	1.72583340e-04	9.40284540e-05	0.00000000e+00
8.64            	2.95342470e-01	1.44969940e-04	1.70341740e-04	9.97643700e-05	0.00000000e+00
8.645           	2.63874970e-01	1.43802500e-04	1.68101930e-04	1.40319810e-04	0.00000000e+00
8.65            	2.19460090e-01	1.42635190e-04	1.65863960e-04	1.25996650e-04	0.00000000e+00
8.655           	8.25963790e-02	1.41468000e-04	1.63627870e-04	1.06451480e-04	0.00000000e+00
8.66            	7.40006560e-02	1.40300950e-04	1.61393680e-04	1.46187120e-04	0.00000000e+00
8.665           	1.95018510e-01	1.39134060e-04	1.59161450e-04	1.14654780e-04	0.00000000e+00
8.67            	4.99704680e-01	1.37967330e-04	1.56931200e-04	1.02300430e-04	0.00000000e+00
8.675           	7.32634190e-02	1.36800800e-04	1.54702970e-04	1.01179720e-04	0.00000000e+00
8.68            	9.52767610e-02	1.35634430e-04	1.52476810e-04	1.16321120e-04	0.00000000e+00
8.685           	1.70720720e-01	1.34468280e-04	1.50252740e-04	1.35415420e-04	0.00000000e+00
8.69            	2.18161100e-01	1.33302350e-04	1.48030810e-04	1.15181520e-04	0.00000000e+00
8.695           	8.08997580e-02	1.32136670e-04	1.45811050e-04	1.29053590e-04	0.00000000e+00
8.7             	2.26307170e-01	1.30971220e-04	1.43593500e-04	1.49371450e-04	0.00000000e+00
8.705           	9.08346530e-02	1.29806010e-04	1.41378200e-04	1.08001370e-04	0.00000000e+00
8.71            	7.08317020e-02	1.28641090e-04	1.39165180e-04	1.40976950e-04	0.00000000e+00
8.715           	2.17461940e-01	1.27476450e-04	1.36954480e-04	1.12463780e-04	0.00000000e+00
8.72            	8.48599830e-02	1.26312110e-04	1.34737110e-04	1.22400660e-04	0.00000000e+00
8.725           	9.06558820e-02	1.25148070e-04	1.32528180e-04	1.20202240e-04	0.00000000e+00
8.73            	3.90909770e-01	1.23984350e-04	1.30323710e-04	1.19851790e-04	0.00000000e+00
8.735           	5.21249050e-02	1.22820960e-04	1.28122370e-04	1.38001200e-04	0.00000000e+00
8.74            	1.13903010e-01	1.21657930e-04	1.25923770e-04	1.62694990e-04	0.00000000e+00
8.745           	5.23095660e-02	1.20495280e-04	1.23727790e-04	1.46359050e-04	0.00000000e+00
8.75            	7.59842610e-02	1.19332990e-04	1.21534410e-04	1.34060010e-04	0.00000000e+00
8.755           	8.81840670e-02	1.18171090e-04	1.19343640e-04	1.03671620e-04	0.00000000e+00
8.76            	1.27240370e-01	1.17009580e-04	1.17155520e-04	1.50815540e-04	0.00000000e+00
8.765           	1.02356290e-01	1.15848490e-04	1.14970080e-04	9.39729200e-05	0.00000000e+00
8.77            	1.87460690e-01	1.14687850e-04	1.12787350e-04	8.59068570e-05	0.00000000e+00
8.775           	9.64193680e-02	1.13527640e-04	1.10607380e-04	1.10560560e-04	0.00000000e+00
8.78            	2.07442560e-01	1.12367880e-04	1.08430180e-04	8.70664280e-05	0.00000000e+00
8.785           	1.13355410e-01	1.11208580e-04	1.06255800e-04	8.89394710e-05	0.00000000e+00
8.79            	2.53357430e-01	1.10049760e-04	1.04084280e-04	1.21905470e-04	0.00000000e+00
8.795           	1.83826470e-01	1.08891440e-04	1.01915630e-04	1.43715760e-04	0.00000000e+00
8.8             	3.46189130e-01	1.07733630e-04	9.97499100e-05	1.57779210e-04	0.00000000e+00
8.805           	9.10615890e-02	1.06576340e-04	9.75871390e-05	1.69877530e-04	0.00000000e+00
8.81            	7.43970010e-02	1.05419580e-04	9.54273560e-05	1.45029030e-04	0.00000000e+00
8.815           	1.03825920e-01	1.04263350e-04	9.32705930e-05	1.21196400e-04	0.00000000e+00
8.82            	1.53662290e-01	1.03107690e-04	9.11168850e-05	1.72720010e-04	0.00000000e+00
8.825           	1.24258380e-01	1.01952600e-04	8.89662630e-05	1.21322850e-04	0.00000000e+00
8.83            	4.07866710e-01	1.00798080e-04	8.68187630e-05	1.15761040e-04	0.00000000e+00
8.835           	2.05769110e-01	9.96441640e-05	8.46744160e-05	1.30319880e-04	0.00000000e+00
8.84            	1.34677480e-01	9.84908410e-05	8.25332560e-05	1.42494820e-04	0.00000000e+00
8.845           	1.04518310e-01	9.73381540e-05	8.03953150e-05	7.09504030e-05	0.00000000e+00
8.85            	1.58173900e-01	9.61860860e-05	7.82606280e-05	8.03552610e-05	0.00000000e+00
8.855           	9.65429000e-02	9.50346670e-05	7.61292240e-05	1.46882200e-04	0.00000000e+00
8.86            	3.28832440e-01	9.38839180e-05	7.40011390e-05	4.73758520e-05	0.00000000e+00
8.865           	1.11259800e-01	9.27338330e-05	7.18764030e-05	1.05360020e-04	0.00000000e+00
8.87            	1.87339050e-01	9.15844280e-05	6.97550480e-05	5.71682820e-05	0.00000000e+00
8.875           	1.45248420e-01	9.04357170e-05	6.76371080e-05	1.16046350e-04	0.00000000e+00
8.88            	2.94611300e-01	8.92877140e-05	6.55226130e-05	1.23547800e-04	0.00000000e+00
8.885           	1.30808400e-01	8.81404220e-05	6.34115960e-05	7.53538710e-05	0.00000000e+00
8.89            	2.16241240e-01	8.69938780e-05	6.13040870e-05	9.78251350e-05	0.00000000e+00
8.895           	2.93180020e-01	8.58480740e-05	5.92001190e-05	8.87325170e-05	0.00000000e+00
8.9             	1.76720570e-01	8.47030270e-05	5.70997220e-05	1.26945450e-04	0.00000000e+00
8.905           	2.15471400e-01	8.35587490e-05	5.50029280e-05	7.99974270e-05	0.00000000e+00
8.91            	1.34007360e-01	8.24152530e-05	5.29097670e-05	8.87254660e-05	0.00000000e+00
8.915           	1.25730970e-01	8.12725430e-05	5.08202710e-05	1.01840290e-04	0.00000000e+00
8.92            	1.18246450e-01	8.01306450e-05	4.87344700e-05	8.96043830e-05	0.00000000e+00
8.925           	1.16996730e-01	7.89895780e-05	4.66523940e-05	1.10886660e-04	0.00000000e+00
8.93            	2.15572600e-01	7.78493370e-05	4.45740740e-05	1.07757590e-04	0.00000000e+00
8.935           	1.92544480e-01	7.67099380e-05	4.24995400e-05	9.90812400e-05	0.00000000e+00
8.94            	2.60355710e-01	7.55713950e-05	4.04288230e-05	9.31516000e-05	0.00000000e+00
8.945           	1.56753420e-01	7.44337120e-05	3.83619510e-05	1.16551420e-04	0.00000000e+00
8.95            	7.26482390e-02	7.32969230e-05	3.62989540e-05	6.28962590e-05	0.00000000e+00
8.955           	1.16913680e-01	7.21610240e-05	3.42398630e-05	1.04643600e-04	0.00000000e+00
8.96            	6.65946740e-02	7.10260280e-05	3.21847060e-05	9.12711720e-05	0.00000000e+00
8.965           	1.34919150e-01	6.98919430e-05	3.01269220e-05	1.11575430e-04	0.00000000e+00
8.97            	2.07354290e-01	6.87587840e-05	2.80775570e-05	8.91100480e-05	0.00000000e+00
8.975           	1.30703610e-01	6.76265650e-05	2.60336950e-05	1.11641000e-04	0.00000000e+00
8.98            	1.12061970e-01	6.64952910e-05	2.39943830e-05	1.09244880e-04	0.00000000e+00
8.985           	2.23243140e-01	6.53649970e-05	2.19593210e-05	9.40555420e-05	0.00000000e+00
8.99            	1.43301620e-01	6.42356770e-05	1.99284260e-05	1.07104420e-04	0.00000000e+00
8.995           	1.43749750e-01	6.31073390e-05	1.79016890e-05	8.76577700e-05	0.00000000e+00
9               	1.35081810e-01	6.19800080e-05	1.58791250e-05	1.19921250e-04	0.00000000e+00
9.005           	2.39096580e-01	6.08537010e-05	1.38607580e-05	1.27841500e-04	0.00000000e+00
9.01            	1.31564900e-01	5.97284080e-05	1.18466130e-05	1.01975720e-04	0.00000000e+00
9.015           	2.07937640e-01	5.86041580e-05	9.83671810e-06	8.48987590e-05	0.00000000e+00
9.02            	1.74418640e-01	5.74809660e-05	7.83109940e-06	9.32892690e-05	0.00000000e+00
9.025           	1.86043390e-01	5.63588320e-05	5.82978410e-06	1.08545900e-04	0.00000000e+00
9.03            	2.52356300e-01	5.52377640e-05	3.83279900e-06	1.18690510e-04	0.00000000e+00
9.035           	2.19039680e-01	5.41177930e-05	1.84017100e-06	8.15047960e-05	0.00000000e+00
9.04            	2.74320870e-01	5.29989170e-05	7.54933260e-07	7.65549210e-05	0.00000000e+00
9.045           	1.10349490e-01	5.18813620e-05	2.62789980e-06	8.72006160e-05	0.00000000e+00
9.05            	1.64424700e-01	5.07648550e-05	4.57780030e-06	8.76263260e-05	0.00000000e+00
9.055           	1.16400520e-01	4.96494080e-05	6.52147450e-06	5.37704390e-05	0.00000000e+00
9.06            	1.26647540e-01	4.85350600e-05	8.45448210e-06	7.48746570e-05	0.00000000e+00
9.065           	7.95571050e-02	4.74218550e-05	1.03787610e-05	5.98503230e-05	0.00000000e+00
9.07            	7.56661590e-02	4.63098060e-05	1.22994140e-05	9.20445510e-05	0.00000000e+00
9.075           	8.77654700e-02	4.51989320e-05	1.42158770e-05	1.22682680e-04	0.00000000e+00
9.08            	1.05592900e-01	4.40892430e-05	1.61279390e-05	6.88147590e-05	0.00000000e+00
9.085           	2.21907890e-01	4.29807620e-05	1.80355110e-05	6.46437640e-05	0.00000000e+00
9.09            	7.04268130e-02	4.18735030e-05	1.99416290e-05	9.97258420e-05	0.00000000e+00
9.095           	1.01592420e-01	4.07674690e-05	2.18694040e-05	6.99404830e-05	0.00000000e+00
9.1             	1.08099110e-01	3.96626730e-05	2.37925010e-05	1.02982150e-04	0.00000000e+00
9.105           	1.74429020e-01	3.85591280e-05	2.57108990e-05	9.17453910e-05	0.00000000e+00
9.11            	1.47920860e-01	3.74568460e-05	2.76245760e-05	9.45027370e-05	0.00000000e+00
9.115           	2.07352310e-01	3.63558380e-05	2.95335090e-05	9.94534740e-05	0.00000000e+00
9.12            	1.78530880e-01	3.52561160e-05	3.14376740e-05	6.14484800e-05	0.00000000e+00
9.125           	1.04851700e-01	3.41576870e-05	3.33370480e-05	8.17969700e-05	0.00000000e+00
9.13            	1.76454870e-01	3.30605660e-05	3.52331480e-05	7.46554210e-05	0.00000000e+00
9.135           	2.74651950e-01	3.19647680e-05	3.71233780e-05	8.93386440e-05	0.00000000e+00
9.14            	1.58901360e-01	3.08702980e-05	3.90084020e-05	1.13960410e-04	0.00000000e+00
9.145           	1.00437230e-01	2.97771700e-05	4.08884270e-05	1.08722160e-04	0.00000000e+00
9.15            	2.08707690e-01	2.86853930e-05	4.27635040e-05	1.39002610e-04	0.00000000e+00
9.155           	2.14865300e-01	2.75949890e-05	4.46336390e-05	1.42864450e-04	0.00000000e+00
9.16            	1.34241640e-01	2.65059610e-05	4.64988160e-05	2.18575120e-04	0.00000000e+00
9.165           	1.17683910e-01	2.54183180e-05	4.83680600e-05	1.55868000e-04	0.00000000e+00
9.17            	1.52482830e-01	2.43320770e-05	5.02360950e-05	1.99252860e-04	0.00000000e+00
9.175           	3.82567680e-01	2.32472450e-05	5.20972770e-05	1.27680240e-04	0.00000000e+00
9.18            	2.18087740e-01	2.21638350e-05	5.39527840e-05	1.12829110e-04	0.00000000e+00
9.185           	1.22630490e-01	2.10818590e-05	5.58029980e-05	1.35166190e-04	0.00000000e+00
9.19            	3.93985420e-01	2.00013280e-05	5.76480340e-05	1.15027560e-04	0.00000000e+00
9.195           	2.73266180e-01	1.89222490e-05	5.94899490e-05	1.30954930e-04	0.00000000e+00
9.2             	2.11555940e-01	1.78446420e-05	6.13253430e-05	1.88359780e-04	0.00000000e+00
9.205           	8.85691830e-02	1.67685100e-05	6.31551000e-05	1.35787750e-04	0.00000000e+00
9.21            	8.82043000e-02	1.56938700e-05	6.49795040e-05	1.76232350e-04	0.00000000e+00
9.215           	1.73521490e-01	1.46245180e-05	6.64845530e-05	1.45005540e-04	0.00000000e+00
9.22            	1.04809310e-01	1.36162860e-05	6.81953760e-05	2.99857970e-04	0.00000000e+00
9.225           	1.05638190e-01	1.26342280e-05	6.99713930e-05	1.58004430e-04	0.00000000e+00
9.23            	1.73905360e-01	1.17422840e-05	7.17656950e-05	1.83426740e-04	0.00000000e+00
9.235           	1.57542200e-01	1.09242620e-05	7.35626030e-05	1.87106110e-04	0.00000000e+00
9.24            	1.52687200e-01	1.01857180e-05	7.53568890e-05	2.02990770e-04	0.00000000e+00
9.245           	1.61817670e-01	9.53031240e-06	7.71467630e-05	1.69909290e-04	0.00000000e+00
9.25            	1.25205120e-01	8.95583420e-06	7.89316180e-05	1.39872300e-04	0.00000000e+00
9.255           	1.67555910e-01	8.46317660e-06	8.07112360e-05	1.78715690e-04	0.00000000e+00
9.26            	1.49127120e-01	8.05295300e-06	8.24855180e-05	2.10543250e-04	0.00000000e+00
9.265           	1.89541470e-01	7.72562460e-06	8.42544460e-05	2.06668960e-04	0.00000000e+00
9.27            	2.47795470e-01	7.48520890e-06	8.60179610e-05	1.12817370e-04	0.00000000e+00
9.275           	1.21462470e-01	7.33270730e-06	8.77760680e-05	1.40871000e-04	0.00000000e+00
9.28            	1.01774880e-01	7.26199810e-06	8.95287260e-05	1.79937490e-04	0.00000000e+00
9.285           	1.81750190e-01	7.27220590e-06	9.12759080e-05	1.56650610e-04	0.00000000e+00
9.29            	7.57534760e-02	7.36217890e-06	9.30176230e-05	1.54009890e-04	0.00000000e+00
9.295           	1.61502670e-01	7.53063830e-06	9.47538310e-05	1.83301280e-04	0.00000000e+00
9.3             	1.53809510e-01	7.77579360e-06	9.64845040e-05	1.65071360e-04	0.00000000e+00
9.305           	1.48010280e-01	8.09604230e-06	9.82096550e-05	1.21073900e-04	0.00000000e+00
9.31            	1.19525250e-01	8.48911710e-06	9.99292430e-05	1.32577720e-04	0.00000000e+00
9.315           	1.19212400e-01	8.95578060e-06	1.01643250e-04	1.24181840e-04	0.00000000e+00
9.32            	1.42426460e-01	9.49305610e-06	1.03351670e-04	1.61842120e-04	0.00000000e+00
9.325           	1.05858370e-01	1.00955230e-05	1.05054480e-04	1.11233340e-04	0.00000000e+00
9.33            	1.66598820e-01	1.07602570e-05	1.06751640e-04	1.82302830e-04	0.00000000e+00
9.335           	7.62398760e-02	1.14838160e-05	1.08443180e-04	1.56166720e-04	0.00000000e+00
9.34            	1.35119350e-01	1.22625510e-05	1.10129060e-04	2.22740330e-04	0.00000000e+00
9.345           	1.85045950e-01	1.30921790e-05	1.11809240e-04	2.01228630e-04	0.00000000e+00
9.35            	1.72887070e-01	1.39750830e-05	1.13483750e-04	2.45427620e-04	0.00000000e+00
9.355           	1.37389770e-01	1.48986690e-05	1.15152540e-04	2.27219740e-04	0.00000000e+00
9.36            	1.07266260e-01	1.58580070e-05	1.16815610e-04	2.02389700e-04	0.00000000e+00
9.365           	8.67701560e-02	1.68511410e-05	1.18472930e-04	1.75753990e-04	0.00000000e+00
9.37            	1.14750650e-01	1.78644640e-05	1.20124500e-04	1.63112980e-04	0.00000000e+00
9.375           	1.22240840e-01	1.88773920e-05	1.21770300e-04	1.30144640e-04	0.00000000e+00
9.38            	1.78712750e-01	1.98897100e-05	1.23410300e-04	1.90150230e-04	0.00000000e+00
9.385           	3.12629170e-01	2.09030870e-05	1.25044500e-04	1.54386120e-04	0.00000000e+00
9.39            	1.32168520e-01	2.19146060e-05	1.26672900e-04	1.75804180e-04	0.00000000e+00
9.395           	1.89803790e-01	2.29242510e-05	1.28295440e-04	1.31650480e-04	0.00000000e+00
9.4             	2.23687140e-01	2.39320160e-05	1.29912170e-04	1.39826140e-04	0.00000000e+00
9.405           	2.37923610e-01	2.49378870e-05	1.31523010e-04	1.38257860e-04	0.00000000e+00
9.41            	9.60935940e-02	2.59418590e-05	1.33128010e-04	1.30718450e-04	0.00000000e+00
9.415           	3.24099510e-01	2.69439180e-05	1.34727110e-04	1.75103280e-04	0.00000000e+00
9.42            	1.49259370e-01	2.79440550e-05	1.36320310e-04	1.04745510e-04	0.00000000e+00
9.425           	1.34387370e-01	2.89422570e-05	1.37907580e-04	1.55906720e-04	0.00000000e+00
9.43            	1.68446930e-01	2.99385220e-05	1.39488940e-04	1.15207220e-04	0.00000000e+00
9.435           	2.47029370e-01	3.09328340e-05	1.41064370e-04	8.73311360e-05	0.00000000e+00
9.44            	2.74829780e-01	3.19251800e-05	1.42633820e-04	8.86308300e-05	0.00000000e+00
9.445           	1.37382250e-01	3.29155600e-05	1.44197330e-04	8.90791140e-05	0.00000000e+00
9.45            	4.77368560e-01	3.39043570e-05	1.45754860e-04	6.60912350e-05	0.00000000e+00
9.455           	1.46858200e-01	3.48923820e-05	1.47306370e-04	5.74761750e-05	0.00000000e+00
9.46            	1.91646440e-01	3.58784100e-05	1.48851920e-04	7.93772790e-05	0.00000000e+00
9.465           	2.70720330e-01	3.68624180e-05	1.50391420e-04	9.50482820e-05	0.00000000e+00
9.47            	1.27889730e-01	3.78444080e-05	1.51924930e-04	1.37229440e-04	0.00000000e+00
9.475           	2.43459650e-01	3.88243640e-05	1.53452390e-04	1.13479080e-04	0.00000000e+00
9.48            	1.02043330e-01	3.98022760e-05	1.54973800e-04	1.07592810e-04	0.00000000e+00
9.485           	1.40360930e-01	4.07781310e-05	1.56489130e-04	8.40682680e-05	0.00000000e+00
9.49            	1.20312940e-01	4.17519270e-05	1.57998400e-04	7.63357770e-05	0.00000000e+00
9.495           	1.27372450e-01	4.27236560e-05	1.59501620e-04	7.78150020e-05	0.00000000e+00
9.5             	1.90353720e-01	4.36932970e-05	1.60998710e-04	7.96737910e-05	0.00000000e+00
9.505           	1.09442170e-01	4.46608500e-05	1.62489710e-04	7.06822430e-05	0.00000000e+00
9.51            	9.89257460e-02	4.56263070e-05	1.63974620e-04	1.19902380e-04	0.00000000e+00
9.515           	9.44902120e-02	4.65896480e-05	1.65453370e-04	1.35631980e-04	0.00000000e+00
9.52            	1.59178740e-01	4.75508710e-05	1.66926000e-04	9.08945580e-05	0.00000000e+00
9.525           	3.75109440e-01	4.85099720e-05	1.68392510e-04	1.12453180e-04	0.00000000e+00
9.53            	1.32791540e-01	4.94669280e-05	1.69852840e-04	1.17813550e-04	0.00000000e+00
9.535           	1.32011930e-01	5.04217430e-05	1.71307030e-04	1.22592480e-04	0.00000000e+00
9.54            	9.51228910e-02	5.13744000e-05	1.72755040e-04	1.49995720e-04	0.00000000e+00
9.545           	1.26773700e-01	5.23248910e-05	1.74196870e-04	1.45906820e-04	0.00000000e+00
9.55            	5.81910050e-02	5.32732070e-05	1.75632510e-04	1.36344750e-04	0.00000000e+00
9.555           	2.91674030e-01	5.42195130e-05	1.77061950e-04	2.07369150e-04	0.00000000e+00
9.56            	1.09195610e-01	5.51636460e-05	1.78485180e-04	2.25296020e-04	0.00000000e+00
9.565           	1.52804620e-01	5.61055770e-05	1.79902200e-04	9.97068260e-05	0.00000000e+00
9.57            	1.57347870e-01	5.70452960e-05	1.81312990e-04	1.55565140e-04	0.00000000e+00
9.575           	8.37999100e-02	5.79827950e-05	1.82717560e-04	1.70255060e-04	0.00000000e+00
9.58            	3.59373920e-01	5.89180580e-05	1.84115850e-04	1.20701790e-04	0.00000000e+00
9.585           	1.04174310e-01	5.98510930e-05	1.85507940e-04	1.08805510e-04	0.00000000e+00
9.59            	1.65982660e-01	6.07818710e-05	1.86893740e-04	1.61434660e-04	0.00000000e+00
9.595           	1.77379970e-01	6.17104040e-05	1.88273320e-04	1.33560800e-04	0.00000000e+00
9.6             	1.81834560e-01	6.26366670e-05	1.89646610e-04	1.07206140e-04	0.00000000e+00
9.605           	1.42836230e-01	6.35606560e-05	1.91013630e-04	1.18329890e-04	0.00000000e+00
9.61            	2.64243220e-01	6.44823620e-05	1.92374350e-04	1.50632720e-04	0.00000000e+00
9.615           	1.13283840e-01	6.54017760e-05	1.93728790e-04	1.64056160e-04	0.00000000e+00
9.62            	1.47329370e-01	6.63188900e-05	1.95076930e-04	1.09899350e-04	0.00000000e+00
9.625           	1.13557550e-01	6.72336880e-05	1.96418730e-04	1.65031820e-04	0.00000000e+00
9.63            	1.25798010e-01	6.81461810e-05	1.97754270e-04	1.38897060e-04	0.00000000e+00
9.635           	1.10094140e-01	6.90563450e-05	1.99083490e-04	1.30827510e-04	0.00000000e+00
9.64            	2.92554090e-01	6.99641730e-05	2.00406370e-04	1.64303910e-04	0.00000000e+00
9.645           	7.93171570e-02	7.08696570e-05	2.01722930e-04	2.07864940e-04	0.00000000e+00
9.65            	1.27109110e-01	7.17727900e-05	2.03033150e-04	9.67556480e-05	0.00000000e+00
9.655           	1.86176380e-01	7.26735630e-05	2.04337030e-04	1.34122560e-04	0.00000000e+00
9.66            	1.58629220e-01	7.35719680e-05	2.05634570e-04	1.61874440e-04	0.00000000e+00
9.665           	6.81668090e-02	7.44679960e-05	2.06925760e-04	8.91904370e-05	0.00000000e+00
9.67            	2.05115560e-01	7.53616300e-05	2.08210560e-04	1.37436370e-04	0.00000000e+00
9.675           	1.02116410e-01	7.62528850e-05	2.09489050e-04	1.71506020e-04	0.00000000e+00
9.68            	2.04264120e-01	7.71417350e-05	2.10761160e-04	1.15541560e-04	0.00000000e+00
9.685           	1.40741400e-01	7.80281740e-05	2.12026900e-04	1.67222730e-04	0.00000000e+00
9.69            	1.78892070e-01	7.89121860e-05	2.13286230e-04	1.76164210e-04	0.00000000e+00
9.695           	2.41230390e-01	7.97937770e-05	2.14539210e-04	1.54310640e-04	0.00000000e+00
9.7             	1.34695410e-01	8.06729460e-05	2.15785830e-04	1.86168960e-04	0.00000000e+00
9.705           	1.41135550e-01	8.15496680e-05	2.17026060e-04	1.51932150e-04	0.00000000e+00
9.71            	7.00164900e-02	8.24239370e-05	2.18259880e-04	1.75238490e-04	0.00000000e+00
9.715           	2.87474980e-01	8.32957470e-05	2.19487310e-04	1.82770350e-04	0.00000000e+00
9.72            	1.60301770e-01	8.41650920e-05	2.20708350e-04	1.14101260e-04	0.00000000e+00
9.725           	9.44945850e-02	8.50319620e-05	2.21922980e-04	7.82027920e-05	0.00000000e+00
9.73            	1.56469570e-01	8.58963410e-05	2.23131170e-04	1.34713590e-04	0.00000000e+00
9.735           	1.24321870e-01	8.67582470e-05	2.24333010e-04	1.68806510e-04	0.00000000e+00
9.74            	2.08486140e-01	8.76176410e-05	2.25528400e-04	1.90063610e-04	0.00000000e+00
9.745           	9.56281200e-02	8.84745460e-05	2.26717420e-04	1.01188460e-04	0.00000000e+00
9.75            	1.80904780e-01	8.93289330e-05	2.27900010e-04	1.41099170e-04	0.00000000e+00
9.755           	1.55154860e-01	9.01807870e-05	2.29076140e-04	1.43347370e-04	0.00000000e+00
9.76            	2.23550760e-01	9.10301310e-05	2.30245910e-04	1.08898330e-04	0.00000000e+00
9.765           	1.39821150e-01	9.18769230e-05	2.31409200e-04	8.87825020e-05	0.00000000e+00
9.77            	1.77034380e-01	9.27211900e-05	2.32566120e-04	8.45482100e-05	0.00000000e+00
9.775           	1.43386260e-01	9.35629000e-05	2.33716600e-04	7.39940460e-05	0.00000000e+00
9.78            	9.39873710e-02	9.44020510e-05	2.34860640e-04	9.36314350e-05	0.00000000e+00
9.785           	9.36014120e-02	9.52386370e-05	2.35998250e-04	1.41810610e-04	0.00000000e+00
9.79            	1.44191740e-01	9.60726490e-05	2.37129430e-04	1.01225380e-04	0.00000000e+00
9.795           	1.72693090e-01	9.69040700e-05	2.38254150e-04	9.53048090e-05	0.00000000e+00
9.8             	7.97816440e-02	9.77329120e-05	2.39372450e-04	1.35487700e-04	0.00000000e+00
9.805           	5.98683440e-02	9.85591620e-05	2.40484330e-04	9.58821580e-05	0.00000000e+00
9.81            	1.60288170e-01	9.93828230e-05	2.41589800e-04	8.64342440e-05	0.00000000e+00
9.815           	1.35332700e-01	1.00203870e-04	2.42688820e-04	1.44905780e-04	0.00000000e+00
9.82            	1.76050500e-01	1.01022280e-04	2.43781360e-04	1.33774330e-04	0.00000000e+00
9.825           	4.11502770e-01	1.01838100e-04	2.44867510e-04	1.21576530e-04	0.00000000e+00
9.83            	1.05691780e-01	1.02651270e-04	2.45947220e-04	7.22362900e-05	0.00000000e+00
9.835           	1.90187380e-01	1.03461810e-04	2.47020480e-04	8.27301730e-05	0.00000000e+00
9.84            	2.91079030e-01	1.04269710e-04	2.48087300e-04	1.29623300e-04	0.00000000e+00
9.845           	7.79077610e-02	1.05074950e-04	2.49147680e-04	1.09589800e-04	0.00000000e+00
9.85            	1.13672880e-01	1.05877540e-04	2.50201620e-04	1.20954580e-04	0.00000000e+00
9.855           	2.29537330e-01	1.06677460e-04	2.51249130e-04	1.45198510e-04	0.00000000e+00
9.86            	1.07710540e-01	1.07474710e-04	2.52290190e-04	1.44178650e-04	0.00000000e+00
9.865           	1.78826700e-01	1.08269290e-04	2.53324830e-04	1.92557870e-04	0.00000000e+00
9.87            	1.35654620e-01	1.09061180e-04	2.54353030e-04	1.90187520e-04	0.00000000e+00
9.875           	8.31669480e-02	1.09850380e-04	2.55374790e-04	1.58827240e-04	0.00000000e+00
9.88            	2.99158870e-01	1.10636890e-04	2.56390120e-04	2.77033440e-04	0.00000000e+00
9.885           	7.52730810e-02	1.11420690e-04	2.57399020e-04	1.55008490e-04	0.00000000e+00
9.89            	3.12518420e-01	1.12201780e-04	2.58401480e-04	1.20901390e-04	0.00000000e+00
9.895           	2.48485490e-01	1.12980150e-04	2.59397520e-04	1.46168840e-04	0.00000000e+00
9.9             	3.56341630e-01	1.13755810e-04	2.60387130e-04	9.54394450e-05	0.00000000e+00
9.905           	1.62576350e-01	1.14528710e-04	2.61370280e-04	8.80608280e-05	0.00000000e+00
9.91            	1.81396980e-01	1.15298900e-04	2.62347020e-04	1.10274320e-04	0.00000000e+00
9.915           	1.20903060e-01	1.16066360e-04	2.63317390e-04	9.99859920e-05	0.00000000e+00
9.92            	2.43852270e-01	1.16831060e-04	2.64281320e-04	7.55426220e-05	0.00000000e+00
9.925           	8.82642880e-02	1.17593010e-04	2.65238820e-04	7.66573140e-05	0.00000000e+00
9.93            	2.18117810e-01	1.18352180e-04	2.66189870e-04	1.29422340e-04	0.00000000e+00
9.935           	1.32065430e-01	1.19108610e-04	2.67134560e-04	6.59980460e-05	0.00000000e+00
9.94            	1.44749110e-01	1.19862250e-04	2.68072790e-04	8.92947580e-05	0.00000000e+00
9.945           	1.79954230e-01	1.20613110e-04	2.69004630e-04	9.10027560e-05	0.00000000e+00
9.95            	1.43257570e-01	1.21361200e-04	2.69930070e-04	1.19081360e-04	0.00000000e+00
9.955           	1.11391680e-01	1.22106510e-04	2.70849160e-04	1.02645690e-04	0.00000000e+00
9.96            	1.00941030e-01	1.22849010e-04	2.71761770e-04	1.10417140e-04	0.00000000e+00
9.965           	6.88475090e-02	1.23588720e-04	2.72668050e-04	1.24596410e-04	0.00000000e+00
9.97            	2.87854150e-01	1.24325600e-04	2.73567880e-04	6.53931390e-05	0.00000000e+00
9.975           	2.79374840e-01	1.25059700e-04	2.74461380e-04	1.45674980e-04	0.00000000e+00
9.98            	4.01867440e-01	1.25790970e-04	2.75348470e-04	9.88147710e-05	0.00000000e+00
9.985           	1.96238270e-01	1.26519400e-04	2.76229140e-04	1.26596980e-04	0.00000000e+00
9.99            	3.01781410e-01	1.27245010e-04	2.77103450e-04	1.59746460e-04	0.00000000e+00
9.995           	1.15366780e-01	1.27967800e-04	2.77971430e-04	1.35449010e-04	0.00000000e+00
10              	5.54690910e-02	1.28687750e-04	2.78833020e-04	1.40949680e-04	0.00000000e+00
10.005          	1.21722770e-01	1.29404840e-04	2.79688240e-04	1.74292810e-04	0.00000000e+00
10.01           	1.85790160e-01	1.30119070e-04	2.80537050e-04	8.93909390e-05	0.00000000e+00
10.015          	1.84582250e-01	1.30830450e-04	2.81379540e-04	2.11035060e-04	0.00000000e+00
10.02           	8.56523060e-02	1.31539000e-04	2.82215720e-04	1.24116450e-04	0.00000000e+00
10.025          	1.09304250e-01	1.32244650e-04	2.83045480e-04	1.50024510e-04	0.00000000e+00
10.03           	1.07396020e-01	1.32947450e-04	2.83868970e-04	1.19782100e-04	0.00000000e+00
10.035          	3.38169470e-01	1.33647350e-04	2.84686050e-04	1.03959670e-04	0.00000000e+00
10.04           	3.86701770e-01	1.34344400e-04	2.85496860e-04	9.29252130e-05	0.00000000e+00
10.045          	1.92579120e-01	1.35038540e-04	2.86301290e-04	9.47890060e-05	0.00000000e+00
10.05           	1.06716630e-01	1.35729810e-04	2.87099450e-04	1.74626600e-04	0.00000000e+00
10.055          	3.02882070e-01	1.36418170e-04	2.87891270e-04	8.76873710e-05	0.00000000e+00
10.06           	1.37732240e-01	1.37103640e-04	2.88676780e-04	1.05557790e-04	0.00000000e+00
10.065          	1.77735930e-01	1.37786180e-04	2.89455930e-04	1.12878330e-04	0.00000000e+00
10.07           	9.95435370e-02	1.38465810e-04	2.90228810e-04	1.36315950e-04	0.00000000e+00
10.075          	6.94267330e-02	1.39142560e-04	2.90995450e-04	1.80525630e-04	0.00000000e+00
10.08           	4.02238730e-01	1.39816360e-04	2.91755730e-04	1.07426050e-04	0.00000000e+00
10.085          	8.96544440e-02	1.40487240e-04	2.92509740e-04	1.60702050e-04	0.00000000e+00
10.09           	1.77461760e-01	1.41155220e-04	2.93257530e-04	1.16260920e-04	0.00000000e+00
10.095          	2.35501310e-01	1.41820240e-04	2.93998980e-04	1.73204090e-04	0.00000000e+00
10.1            	9.58397860e-02	1.42482340e-04	2.94734230e-04	1.61527130e-04	0.00000000e+00
10.105          	1.19036610e-01	1.43141490e-04	2.95463190e-04	1.41054510e-04	0.00000000e+00
10.11           	3.35137050e-01	1.43797700e-04	2.96185900e-04	1.76244700e-04	0.00000000e+00
10.115          	2.77741970e-01	1.44450950e-04	2.96902360e-04	1.76521620e-04	0.00000000e+00
10.12           	2.74250750e-01	1.45101250e-04	2.97612580e-04	1.59936060e-04	0.00000000e+00
10.125          	1.11441300e-01	1.45748590e-04	2.98316570e-04	1.98716370e-04	0.00000000e+00
10.13           	1.10354170e-01	1.46392940e-04	2.99014290e-04	2.12898900e-04	0.00000000e+00
10.135          	2.74653610e-01	1.47034350e-04	2.99705820e-04	2.15852260e-04	0.00000000e+00
10.14           	1.62084140e-01	1.47672810e-04	3.00391190e-04	2.47145550e-04	0.00000000e+00
10.145          	1.07270250e-01	1.48308280e-04	3.01070340e-04	2.66666920e-04	0.00000000e+00
10.15           	1.24519660e-01	1.48940770e-04	3.01743280e-04	3.54270360e-04	0.00000000e+00
10.155          	9.02247180e-02	1.49570250e-04	3.02409980e-04	2.52127800e-04	0.00000000e+00
10.16           	1.14819700e-01	1.50196760e-04	3.03070530e-04	3.62048130e-04	0.00000000e+00
10.165          	1.04305020e-01	1.50820290e-04	3.03724920e-04	2.38843640e-04	0.00000000e+00
10.17           	1.00223580e-01	1.51440820e-04	3.04373140e-04	3.26570100e-04	0.00000000e+00
10.175          	1.53142540e-01	1.52058360e-04	3.05015210e-04	2.45967380e-04	0.00000000e+00
10.18           	1.41029250e-01	1.52672920e-04	3.05651170e-04	2.55918760e-04	0.00000000e+00
10.185          	1.52006130e-01	1.53284440e-04	3.06280920e-04	2.92351450e-04	0.00000000e+00
10.19           	4.37122390e-02	1.53892980e-04	3.06904600e-04	2.75979440e-04	0.00000000e+00
10.195          	9.37385110e-02	1.54498500e-04	3.07522120e-04	2.71004880e-04	0.00000000e+00
10.2            	9.02255940e-02	1.55100980e-04	3.08133480e-04	3.00383300e-04	0.00000000e+00
10.205          	7.61532960e-02	1.55700460e-04	3.08738750e-04	3.14247080e-04	0.00000000e+00
10.21           	8.91789330e-02	1.56296940e-04	3.09337980e-04	3.56820040e-04	0.00000000e+00
10.215          	1.04887380e-01	1.56890380e-04	3.09931080e-04	4.32267090e-04	0.00000000e+00
10.22           	1.54554270e-01	1.57480770e-04	3.10518050e-04	2.81270460e-04	0.00000000e+00
10.225          	3.94850140e-01	1.58068140e-04	3.11098970e-04	3.05741130e-04	0.00000000e+00
10.23           	1.61650150e-01	1.58652490e-04	3.11673840e-04	2.55037420e-04	0.00000000e+00
10.235          	1.63534870e-01	1.59233800e-04	3.12242640e-04	2.78013110e-04	0.00000000e+00
10.24           	1.89536250e-01	1.59812060e-04	3.12805400e-04	2.84832470e-04	0.00000000e+00
10.245          	1.21537240e-01	1.60387290e-04	3.13362130e-04	3.22077670e-04	0.00000000e+00
10.25           	1.05014040e-01	1.60959490e-04	3.13912860e-04	3.25312610e-04	0.00000000e+00
10.255          	1.05924500e-01	1.61528630e-04	3.14457550e-04	2.69327820e-04	0.00000000e+00
10.26           	1.93083760e-01	1.62094720e-04	3.14996210e-04	2.87245080e-04	0.00000000e+00
10.265          	7.24586230e-02	1.62657730e-04	3.15528820e-04	2.90497520e-04	0.00000000e+00
10.27           	1.33284810e-01	1.63217710e-04	3.16055520e-04	2.64732770e-04	0.00000000e+00
10.275          	1.59186280e-01	1.63774610e-04	3.16576160e-04	2.85840140e-04	0.00000000e+00
10.28           	1.53088880e-01	1.64328480e-04	3.17090900e-04	3.68278700e-04	0.00000000e+00
10.285          	1.48543770e-01	1.64879270e-04	3.17599650e-04	2.83244220e-04	0.00000000e+00
10.29           	1.04449080e-01	1.65426970e-04	3.18102390e-04	2.75969590e-04	0.00000000e+00
10.295          	1.83746850e-01	1.65971620e-04	3.18599220e-04	3.74251010e-04	0.00000000e+00
10.3            	2.25359820e-01	1.66513200e-04	3.19090120e-04	3.41719150e-04	0.00000000e+00
10.305          	8.41094970e-02	1.67051730e-04	3.19575150e-04	4.09090460e-04	0.00000000e+00
10.31           	3.06315390e-01	1.67587170e-04	3.20054230e-04	2.91816130e-04	0.00000000e+00
10.315          	1.32990540e-01	1.68119530e-04	3.20527400e-04	3.43647740e-04	0.00000000e+00
10.32           	1.73121170e-01	1.68648810e-04	3.20994670e-04	3.21262370e-04	0.00000000e+00
10.325          	1.29799440e-01	1.69175000e-04	3.21456060e-04	2.59249140e-04	0.00000000e+00
10.33           	3.06784100e-01	1.69698090e-04	3.21911520e-04	3.09682790e-04	0.00000000e+00
10.335          	2.12766650e-01	1.70218130e-04	3.22361200e-04	2.98106050e-04	0.00000000e+00
10.34           	1.81594790e-01	1.70735070e-04	3.22805010e-04	2.66000610e-04	0.00000000e+00
10.345          	2.72350380e-01	1.71248890e-04	3.23242910e-04	2.50212820e-04	0.00000000e+00
10.35           	1.26720050e-01	1.71759640e-04	3.23675020e-04	2.41037390e-04	0.00000000e+00
10.355          	2.33111360e-01	1.72267330e-04	3.24101370e-04	2.92424290e-04	0.00000000e+00
10.36           	2.53634320e-01	1.72771900e-04	3.24521880e-04	2.31467860e-04	0.00000000e+00
10.365          	1.86315530e-01	1.73273350e-04	3.24936530e-04	3.28511540e-04	0.00000000e+00
10.37           	2.06281060e-01	1.73771720e-04	3.25345420e-04	2.22513000e-04	0.00000000e+00
10.375          	1.79404920e-01	1.74267010e-04	3.25748590e-04	2.34335050e-04	0.00000000e+00
10.38           	3.96232360e-01	1.74759170e-04	3.26145920e-04	2.00778710e-04	0.00000000e+00
10.385          	2.88349920e-01	1.75248250e-04	3.26537570e-04	2.31747390e-04	0.00000000e+00
10.39           	1.19887180e-01	1.75734230e-04	3.26923450e-04	2.53578470e-04	0.00000000e+00
10.395          	1.10069290e-01	1.76217060e-04	3.27303540e-04	2.18344440e-04	0.00000000e+00
10.4            	8.36641890e-02	1.76696840e-04	3.27677990e-04	2.79882940e-04	0.00000000e+00
10.405          	1.09983050e-01	1.77173460e-04	3.28046650e-04	2.64011460e-04	0.00000000e+00
10.41           	2.01351290e-01	1.77646990e-04	3.28409650e-04	3.19212870e-04	0.00000000e+00
10.415          	1.03258790e-01	1.78117440e-04	3.28767010e-04	1.94515540e-04	0.00000000e+00
10.42           	4.71723120e-02	1.78584740e-04	3.29118630e-04	2.96036160e-04	0.00000000e+00
10.425          	1.13460080e-01	1.79048960e-04	3.29464650e-04	2.84896690e-04	0.00000000e+00
10.43           	1.54647420e-01	1.79510040e-04	3.29804950e-04	1.75652310e-04	0.00000000e+00
10.435          	1.47349400e-01	1.79968030e-04	3.30139680e-04	1.72095870e-04	0.00000000e+00
10.44           	1.29543880e-01	1.80422870e-04	3.30468710e-04	2.05775450e-04	0.00000000e+00
10.445          	1.03008190e-01	1.80874610e-04	3.30792150e-04	1.72403580e-04	0.00000000e+00
10.45           	2.08073140e-01	1.81323270e-04	3.31110040e-04	1.53800580e-04	0.00000000e+00
10.455          	1.07422220e-01	1.81768760e-04	3.31422270e-04	1.67804870e-04	0.00000000e+00
10.46           	1.34096570e-01	1.82211170e-04	3.31728980e-04	2.00217460e-04	0.00000000e+00
10.465          	1.02440030e-01	1.82650430e-04	3.32030060e-04	2.91290910e-04	0.00000000e+00
10.47           	2.63496360e-01	1.83086610e-04	3.32325650e-04	1.34144350e-04	0.00000000e+00
10.475          	2.32113650e-01	1.83519620e-04	3.32615630e-04	1.57420170e-04	0.00000000e+00
10.48           	1.00391800e-01	1.83949540e-04	3.32900100e-04	1.59942950e-04	0.00000000e+00
10.485          	1.48291910e-01	1.84376330e-04	3.33179060e-04	2.65353310e-04	0.00000000e+00
10.49           	1.25669690e-01	1.84800010e-04	3.33452520e-04	1.29255220e-04	0.00000000e+00
10.495          	2.01951590e-01	1.85220590e-04	3.33720540e-04	2.01763110e-04	0.00000000e+00
10.5            	2.80117160e-01	1.85638000e-04	3.33983000e-04	1.71621560e-04	0.00000000e+00
10.505          	1.31874620e-01	1.86052310e-04	3.34240000e-04	2.17062000e-04	0.00000000e+00
10.51           	2.06203770e-01	1.86463500e-04	3.34491570e-04	1.37514560e-04	0.00000000e+00
10.515          	1.48861980e-01	1.86871600e-04	3.34737740e-04	1.86055770e-04	0.00000000e+00
10.52           	1.48729640e-01	1.87276530e-04	3.34978400e-04	1.78080590e-04	0.00000000e+00
10.525          	2.38156880e-01	1.87678350e-04	3.35213660e-04	1.02982130e-04	0.00000000e+00
10.53           	2.43298440e-01	1.88077050e-04	3.35443530e-04	1.90203980e-04	0.00000000e+00
10.535          	1.53083960e-01	1.88472630e-04	3.35668020e-04	8.74490850e-05	0.00000000e+00
10.54           	1.01349290e-01	1.88865120e-04	3.35887170e-04	1.08357470e-04	0.00000000e+00
10.545          	1.88149560e-01	1.89254470e-04	3.36100930e-04	1.52079280e-04	0.00000000e+00
10.55           	1.55994370e-01	1.89640700e-04	3.36309320e-04	1.35398250e-04	0.00000000e+00
10.555          	1.03118190e-01	1.90023800e-04	3.36512370e-04	1.23122280e-04	0.00000000e+00
10.56           	2.60191760e-01	1.90403750e-04	3.36710050e-04	2.14715860e-04	0.00000000e+00
10.565          	1.07028880e-01	1.90780630e-04	3.36902490e-04	2.04911940e-04	0.00000000e+00
10.57           	2.96799380e-01	1.91154380e-04	3.37089620e-04	1.67126050e-04	0.00000000e+00
10.575          	3.86905840e-01	1.91524970e-04	3.37271390e-04	1.34360860e-04	0.00000000e+00
10.58           	1.07061470e-01	1.91892470e-04	3.37447930e-04	1.35344680e-04	0.00000000e+00
10.585          	1.76978890e-01	1.92256880e-04	3.37619270e-04	1.58815290e-04	0.00000000e+00
10.59           	9.39278980e-02	1.92618130e-04	3.37785290e-04	1.48533610e-04	0.00000000e+00
10.595          	7.20762290e-02	1.92976280e-04	3.37946090e-04	1.76963170e-04	0.00000000e+00
10.6            	1.01923070e-01	1.93331320e-04	3.38101680e-04	1.97047110e-04	0.00000000e+00
10.605          	1.75004100e-01	1.93683240e-04	3.38252080e-04	1.92209160e-04	0.00000000e+00
10.61           	1.18999940e-01	1.94032050e-04	3.38397280e-04	1.75837690e-04	0.00000000e+00
10.615          	2.05379950e-01	1.94377780e-04	3.38537350e-04	1.81514140e-04	0.00000000e+00
10.62           	1.09907520e-01	1.94720350e-04	3.38672180e-04	1.58732140e-04	0.00000000e+00
10.625          	7.16049320e-02	1.95059850e-04	3.38801930e-04	1.48573340e-04	0.00000000e+00
10.63           	2.21769900e-01	1.95396190e-04	3.38926460e-04	1.47833050e-04	0.00000000e+00
10.635          	1.72085150e-01	1.95729450e-04	3.39045890e-04	1.75735470e-04	0.00000000e+00
10.64           	1.45006020e-01	1.96059620e-04	3.39160280e-04	2.01261030e-04	0.00000000e+00
10.645          	1.49109040e-01	1.96386680e-04	3.39269540e-04	2.35100410e-04	0.00000000e+00
10.65           	1.37025830e-01	1.96710620e-04	3.39373710e-04	1.32078110e-04	0.00000000e+00
10.655          	1.09246640e-01	1.97031460e-04	3.39472810e-04	2.38587640e-04	0.00000000e+00
10.66           	3.34007700e-01	1.97349200e-04	3.39566850e-04	2.38253490e-04	0.00000000e+00
10.665          	1.34705990e-01	1.97663800e-04	3.39655800e-04	1.02064830e-04	0.00000000e+00
10.67           	1.11054870e-01	1.97975330e-04	3.39739750e-04	1.59001620e-04	0.00000000e+00
10.675          	8.13744580e-02	1.98283760e-04	3.39818710e-04	8.61472600e-05	0.00000000e+00
10.68           	2.10976170e-01	1.98589130e-04	3.39892730e-04	1.48153200e-04	0.00000000e+00
10.685          	1.43057730e-01	1.98891360e-04	3.39961680e-04	1.55734300e-04	0.00000000e+00
10.69           	3.46355240e-01	1.99190510e-04	3.40025680e-04	1.04129360e-04	0.00000000e+00
10.695          	1.03866660e-01	1.99486600e-04	3.40084790e-04	9.11929210e-05	0.00000000e+00
10.7            	7.63517880e-02	1.99779560e-04	3.40138880e-04	1.57321230e-04	0.00000000e+00
10.705          	1.20937760e-01	2.00069440e-04	3.40188060e-04	8.05764170e-05	0.00000000e+00
10.71           	1.29057220e-01	2.00356270e-04	3.40232390e-04	1.52952320e-04	0.00000000e+00
10.715          	1.36131050e-01	2.00640000e-04	3.40271790e-04	8.69233960e-05	0.00000000e+00
10.72           	1.30827040e-01	2.00920630e-04	3.40306300e-04	8.26187910e-05	0.00000000e+00
10.725          	4.83780200e-01	2.01198160e-04	3.40335880e-04	1.07818300e-04	0.00000000e+00
10.73           	1.90615160e-01	2.01472660e-04	3.40360690e-04	1.73651330e-04	0.00000000e+00
10.735          	1.44367630e-01	2.01744070e-04	3.40380640e-04	1.44638950e-04	0.00000000e+00
10.74           	1.11792160e-01	2.02012410e-04	3.40395760e-04	1.39796280e-04	0.00000000e+00
10.745          	4.89396090e-02	2.02277670e-04	3.40406060e-04	8.69099960e-05	0.00000000e+00
10.75           	1.90982490e-01	2.02539860e-04	3.40411560e-04	1.46453810e-04	0.00000000e+00
10.755          	8.29328750e-02	2.02798980e-04	3.40412290e-04	1.17353270e-04	0.00000000e+00
10.76           	9.64117020e-02	2.03055010e-04	3.40408190e-04	9.98770870e-05	0.00000000e+00
10.765          	4.15035960e-01	2.03308000e-04	3.40399370e-04	8.41095140e-05	0.00000000e+00
10.77           	2.14206490e-01	2.03557960e-04	3.40385890e-04	8.47044190e-05	0.00000000e+00
10.775          	9.33563500e-02	2.03804820e-04	3.40367590e-04	8.34299120e-05	0.00000000e+00
10.78           	1.34263980e-01	2.04048640e-04	3.40344610e-04	1.99062360e-04	0.00000000e+00
10.785          	1.17110340e-01	2.04289410e-04	3.40316940e-04	7.05352080e-05	0.00000000e+00
10.79           	1.38594090e-01	2.04527160e-04	3.40284660e-04	6.37475560e-05	0.00000000e+00
10.795          	1.13240780e-01	2.04761850e-04	3.40247670e-04	1.28320590e-04	0.00000000e+00
10.8            	6.59288270e-02	2.04993460e-04	3.40205960e-04	9.21788340e-05	0.00000000e+00
10.805          	3.89486400e-01	2.05222040e-04	3.40159660e-04	8.34312840e-05	0.00000000e+00
10.81           	2.22817520e-01	2.05447620e-04	3.40108800e-04	1.30354580e-04	0.00000000e+00
10.815          	2.67338720e-01	2.05670150e-04	3.40053300e-04	6.09282490e-05	0.00000000e+00
10.82           	2.85654440e-01	2.05889600e-04	3.39993140e-04	1.58648760e-04	0.00000000e+00
10.825          	2.15068890e-01	2.06106050e-04	3.39928450e-04	5.78640610e-05	0.00000000e+00
10.83           	1.35819550e-01	2.06319500e-04	3.39859260e-04	9.98634690e-05	0.00000000e+00
10.835          	2.15664060e-01	2.06529920e-04	3.39785480e-04	1.12189340e-04	0.00000000e+00
10.84           	1.90058830e-01	2.06737300e-04	3.39707170e-04	1.08828560e-04	0.00000000e+00
10.845          	1.04995560e-01	2.06941670e-04	3.39624340e-04	9.37365830e-05	0.00000000e+00
10.85           	6.78865620e-02	2.07142990e-04	3.39536950e-04	1.09814660e-04	0.00000000e+00
10.855          	2.78131340e-01	2.07341350e-04	3.39445170e-04	1.28672620e-04	0.00000000e+00
10.86           	6.95986280e-02	2.07536660e-04	3.39348830e-04	8.69503400e-05	0.00000000e+00
10.865          	9.66087310e-02	2.07728980e-04	3.39248070e-04	1.25707300e-04	0.00000000e+00
10.87           	1.84398660e-01	2.07918300e-04	3.39142880e-04	1.06385090e-04	0.00000000e+00
10.875          	1.58134650e-01	2.08104650e-04	3.39033320e-04	1.65646250e-04	0.00000000e+00
10.88           	1.78270380e-01	2.08287990e-04	3.38919320e-04	1.07740740e-04	0.00000000e+00
10.885          	1.30304060e-01	2.08468340e-04	3.38800900e-04	1.41478080e-04	0.00000000e+00
10.89           	3.39656410e-01	2.08645690e-04	3.38678100e-04	1.63313300e-04	0.00000000e+00
10.895          	1.07323390e-01	2.08820060e-04	3.38550940e-04	1.86689190e-04	0.00000000e+00
10.9            	2.32140710e-01	2.08991450e-04	3.38419430e-04	2.64224680e-04	0.00000000e+00
10.905          	8.49566250e-02	2.09159860e-04	3.38283580e-04	1.66643180e-04	0.00000000e+00
10.91           	2.49069750e-01	2.09325260e-04	3.38143350e-04	1.54725610e-04	0.00000000e+00
10.915          	1.24759600e-01	2.09487750e-04	3.37998920e-04	1.55620710e-04	0.00000000e+00
10.92           	1.97497560e-01	2.09647220e-04	3.37850110e-04	2.03783510e-04	0.00000000e+00
10.925          	1.88541370e-01	2.09803790e-04	3.37697110e-04	1.52076020e-04	0.00000000e+00
10.93           	1.60683100e-01	2.09957370e-04	3.37539830e-04	1.45966390e-04	0.00000000e+00
10.935          	6.24809610e-02	2.10107970e-04	3.37378240e-04	1.17427920e-04	0.00000000e+00
10.94           	2.67101830e-01	2.10255670e-04	3.37212510e-04	1.10609040e-04	0.00000000e+00
10.945          	2.12011280e-01	2.10400370e-04	3.37042490e-04	1.31964540e-04	0.00000000e+00
10.95           	1.28681730e-01	2.10542180e-04	3.36868350e-04	1.50846620e-04	0.00000000e+00
10.955          	8.71746930e-02	2.10681030e-04	3.36690000e-04	1.49995700e-04	0.00000000e+00
10.96           	1.28387420e-01	2.10816920e-04	3.36507420e-04	1.52189910e-04	0.00000000e+00
10.965          	1.16467660e-01	2.10949920e-04	3.36320780e-04	1.26775790e-04	0.00000000e+00
10.97           	2.99959930e-01	2.11079980e-04	3.36129970e-04	1.81459880e-04	0.00000000e+00
10.975          	1.43566990e-01	2.11207120e-04	3.35935040e-04	1.60132450e-04	0.00000000e+00
10.98           	2.80400260e-01	2.11331300e-04	3.35735940e-04	1.86754960e-04	0.00000000e+00
10.985          	1.99901710e-01	2.11452620e-04	3.35532840e-04	2.27593050e-04	0.00000000e+00
10.99           	1.33837990e-01	2.11571020e-04	3.35325640e-04	2.22098000e-04	0.00000000e+00
10.995          	5.24912060e-01	2.11686510e-04	3.35114370e-04	2.26193080e-04	0.00000000e+00
11              	1.43582740e-01	2.11799100e-04	3.34899050e-04	2.37462770e-04	0.00000000e+00
11.005          	1.42234070e-01	2.11908760e-04	3.34679650e-04	2.74335510e-04	0.00000000e+00
11.01           	8.69975330e-02	2.12015550e-04	3.34456270e-04	1.59573670e-04	0.00000000e+00
11.015          	2.15820740e-01	2.12119480e-04	3.34228960e-04	1.98847190e-04	0.00000000e+00
11.02           	1.28033690e-01	2.12220520e-04	3.33997630e-04	2.05494130e-04	0.00000000e+00
11.025          	1.84319940e-01	2.12318640e-04	3.33762270e-04	2.17127720e-04	0.00000000e+00
11.03           	3.13132610e-01	2.12413940e-04	3.33523050e-04	1.73499700e-04	0.00000000e+00
11.035          	1.19814240e-01	2.12506360e-04	3.33279860e-04	1.77842310e-04	0.00000000e+00
11.04           	1.88769910e-01	2.12595910e-04	3.33032740e-04	1.82410570e-04	0.00000000e+00
11.045          	1.39557250e-01	2.12682590e-04	3.32781710e-04	1.91372650e-04	0.00000000e+00
11.05           	8.93092920e-02	2.12766420e-04	3.32526790e-04	1.51363410e-04	0.00000000e+00
11.055          	1.55587090e-01	2.12847370e-04	3.32267940e-04	1.85686540e-04	0.00000000e+00
11.06           	1.19613800e-01	2.12925500e-04	3.32005260e-04	1.43608750e-04	0.00000000e+00
11.065          	3.70015340e-01	2.13000820e-04	3.31738810e-04	1.53855910e-04	0.00000000e+00
11.07           	1.04133390e-01	2.13073260e-04	3.31468440e-04	1.62802360e-04	0.00000000e+00
11.075          	1.37033920e-01	2.13142890e-04	3.31194280e-04	1.39611650e-04	0.00000000e+00
11.08           	8.35919660e-02	2.13209720e-04	3.30916390e-04	1.62026220e-04	0.00000000e+00
11.085          	9.88469340e-02	2.13273680e-04	3.30634620e-04	1.44068440e-04	0.00000000e+00
11.09           	2.75621160e-01	2.13334850e-04	3.30349110e-04	1.96173750e-04	0.00000000e+00
11.095          	8.45114740e-02	2.13393240e-04	3.30059910e-04	1.35338200e-04	0.00000000e+00
11.1            	1.06038120e-01	2.13448800e-04	3.29766940e-04	1.32304980e-04	0.00000000e+00
11.105          	6.82915760e-02	2.13501530e-04	3.29470190e-04	1.10612580e-04	0.00000000e+00
11.11           	1.09798330e-01	2.13551480e-04	3.29169760e-04	1.06583500e-04	0.00000000e+00
11.115          	1.85723110e-01	2.13598680e-04	3.28865700e-04	1.10693870e-04	0.00000000e+00
11.12           	1.79963960e-01	2.13643080e-04	3.28557940e-04	1.17303000e-04	0.00000000e+00
11.125          	3.33024090e-01	2.13684660e-04	3.28246450e-04	1.22932220e-04	0.00000000e+00
11.13           	1.37835120e-01	2.13723490e-04	3.27931350e-04	1.02996230e-04	0.00000000e+00
11.135          	1.31557880e-01	2.13759560e-04	3.27612630e-04	8.40143190e-05	0.00000000e+00
11.14           	6.77478340e-02	2.13792860e-04	3.27290300e-04	1.81299140e-04	0.00000000e+00
11.145          	1.27404170e-01	2.13823410e-04	3.26964370e-04	1.05654100e-04	0.00000000e+00
11.15           	1.30535950e-01	2.13851210e-04	3.26634860e-04	1.23456270e-04	0.00000000e+00
11.155          	1.36762040e-01	2.13876260e-04	3.26301790e-04	1.21051480e-04	0.00000000e+00
11.16           	2.33772980e-01	2.13898600e-04	3.25965210e-04	1.54652700e-04	0.00000000e+00
11.165          	2.37178340e-01	2.13918190e-04	3.25625060e-04	1.13252740e-04	0.00000000e+00
11.17           	2.16046980e-01	2.13935040e-04	3.25281380e-04	1.16879960e-04	0.00000000e+00
11.175          	1.77674450e-01	2.13949160e-04	3.24934180e-04	1.89064350e-04	0.00000000e+00
11.18           	1.75864480e-01	2.13960570e-04	3.24583500e-04	1.46683510e-04	0.00000000e+00
11.185          	1.16253130e-01	2.13969260e-04	3.24229340e-04	1.46067890e-04	0.00000000e+00
11.19           	2.41638370e-01	2.13975250e-04	3.23871710e-04	1.56430760e-04	0.00000000e+00
11.195          	3.06426070e-01	2.13978500e-04	3.23510600e-04	1.43551000e-04	0.00000000e+00
11.2            	4.32885650e-01	2.13979120e-04	3.23146130e-04	1.50563240e-04	0.00000000e+00
11.205          	1.80924610e-01	2.13977030e-04	3.22778240e-04	1.53020650e-04	0.00000000e+00
11.21           	2.29989810e-01	2.13972210e-04	3.22406880e-04	1.64274530e-04	0.00000000e+00
11.215          	1.69218970e-01	2.13964780e-04	3.22032220e-04	1.32677300e-04	0.00000000e+00
11.22           	8.96981070e-02	2.13954620e-04	3.21654120e-04	1.06844800e-04	0.00000000e+00
11.225          	3.52706210e-01	2.13941820e-04	3.21272700e-04	1.09470140e-04	0.00000000e+00
11.23           	9.29102010e-02	2.13926390e-04	3.20887990e-04	9.78683350e-05	0.00000000e+00
11.235          	5.64523280e-02	2.13908290e-04	3.20499940e-04	1.14505460e-04	0.00000000e+00
11.24           	2.41067090e-01	2.13887540e-04	3.20108560e-04	1.50485430e-04	0.00000000e+00
11.245          	1.03807970e-01	2.13864110e-04	3.19713840e-04	9.93651640e-05	0.00000000e+00
11.25           	7.90653600e-02	2.13838070e-04	3.19315870e-04	1.04778800e-04	0.00000000e+00
11.255          	1.12434390e-01	2.13809400e-04	3.18914660e-04	8.17727290e-05	0.00000000e+00
11.26           	1.69501720e-01	2.13778150e-04	3.18510250e-04	1.15410730e-04	0.00000000e+00
11.265          	7.07669930e-02	2.13744260e-04	3.18102590e-04	1.02224080e-04	0.00000000e+00
11.27           	1.17697140e-01	2.13707750e-04	3.17691690e-04	1.39816880e-04	0.00000000e+00
11.275          	9.39598850e-02	2.13668630e-04	3.17277590e-04	8.06199060e-05	0.00000000e+00
11.28           	1.81342950e-01	2.13626920e-04	3.16860310e-04	1.01567880e-04	0.00000000e+00
11.285          	1.71929070e-01	2.13582610e-04	3.16439850e-04	7.85361530e-05	0.00000000e+00
11.29           	9.55783910e-02	2.13535720e-04	3.16016240e-04	1.25465150e-04	0.00000000e+00
11.295          	1.63975120e-01	2.13486220e-04	3.15589440e-04	8.70639980e-05	0.00000000e+00
11.3            	3.67508990e-01	2.13434160e-04	3.15159550e-04	1.26563280e-04	0.00000000e+00
11.305          	1.26923070e-01	2.13379580e-04	3.14726610e-04	7.16881430e-05	0.00000000e+00
11.31           	1.23469510e-01	2.13322420e-04	3.14290550e-04	9.65391120e-05	0.00000000e+00
11.315          	2.21509880e-01	2.13262700e-04	3.13851400e-04	8.42784720e-05	0.00000000e+00
11.32           	1.09420700e-01	2.13200400e-04	3.13409130e-04	7.99082860e-05	0.00000000e+00
11.325          	1.15514010e-01	2.13135610e-04	3.12963900e-04	7.08107710e-05	0.00000000e+00
11.33           	2.59811700e-01	2.13068250e-04	3.12515560e-04	1.26931350e-04	0.00000000e+00
11.335          	1.55868920e-01	2.12998400e-04	3.12064280e-04	8.36330190e-05	0.00000000e+00
11.34           	1.58547150e-01	2.12925980e-04	3.11609920e-04	9.83760000e-05	0.00000000e+00
11.345          	1.71246300e-01	2.12851100e-04	3.11152650e-04	1.37065620e-04	0.00000000e+00
11.35           	1.67890730e-01	2.12773700e-04	3.10692380e-04	1.00069740e-04	0.00000000e+00
11.355          	1.18848530e-01	2.12693790e-04	3.10229150e-04	1.15884680e-04	0.00000000e+00
11.36           	1.06778320e-01	2.12611380e-04	3.09762960e-04	8.43862060e-05	0.00000000e+00
11.365          	9.60129080e-02	2.12526460e-04	3.09293800e-04	1.53754350e-04	0.00000000e+00
11.37           	1.16435580e-01	2.12439100e-04	3.08821810e-04	1.49117320e-04	0.00000000e+00
11.375          	1.42283630e-01	2.12349260e-04	3.08346900e-04	1.31647610e-04	0.00000000e+00
11.38           	1.08353830e-01	2.12256950e-04	3.07869110e-04	1.45952160e-04	0.00000000e+00
11.385          	1.49040600e-01	2.12162180e-04	3.07388430e-04	1.19985390e-04	0.00000000e+00
11.39           	1.94606540e-01	2.12064950e-04	3.06904910e-04	1.27369790e-04	0.00000000e+00
11.395          	1.76263280e-01	2.11965280e-04	3.06418550e-04	1.37678380e-04	0.00000000e+00
11.4            	1.07048240e-01	2.11863160e-04	3.05929360e-04	1.09744160e-04	0.00000000e+00
11.405          	1.07034920e-01	2.11758620e-04	3.05437370e-04	7.51830750e-05	0.00000000e+00
11.41           	9.94174630e-02	2.11651640e-04	3.04942580e-04	1.07712660e-04	0.00000000e+00
11.415          	2.71558730e-01	2.11542220e-04	3.04444970e-04	1.52249090e-04	0.00000000e+00
11.42           	2.10184710e-01	2.11430410e-04	3.03944630e-04	9.15365900e-05	0.00000000e+00
11.425          	3.24490140e-01	2.11316200e-04	3.03441550e-04	1.22370420e-04	0.00000000e+00
11.43           	2.23768460e-01	2.11199630e-04	3.02935780e-04	1.12509090e-04	0.00000000e+00
11.435          	1.11675850e-01	2.11080640e-04	3.02427270e-04	7.47652950e-05	0.00000000e+00
11.44           	5.63670910e-02	2.10959270e-04	3.01916040e-04	1.33607350e-04	0.00000000e+00
11.445          	1.64335710e-01	2.10835490e-04	3.01402070e-04	6.91427250e-05	0.00000000e+00
11.45           	2.00379530e-01	2.10709390e-04	3.00885510e-04	9.86182720e-05	0.00000000e+00
11.455          	8.12972180e-02	2.10580910e-04	3.00366260e-04	2.08348980e-04	0.00000000e+00
11.46           	6.71202840e-02	2.10450070e-04	2.99844370e-04	1.77026360e-04	0.00000000e+00
11.465          	1.80276910e-01	2.10316880e-04	2.99319840e-04	2.30959580e-04	0.00000000e+00
11.47           	1.71654890e-01	2.10181360e-04	2.98792690e-04	2.19578370e-04	0.00000000e+00
11.475          	1.36817860e-01	2.10043460e-04	2.98262900e-04	2.08276360e-04	0.00000000e+00
11.48           	1.62079870e-01	2.09903270e-04	2.97730550e-04	2.08250490e-04	0.00000000e+00
11.485          	1.75221120e-01	2.09760790e-04	2.97195680e-04	1.27588850e-04	0.00000000e+00
11.49           	2.46327510e-01	2.09615980e-04	2.96658240e-04	1.85838090e-04	0.00000000e+00
11.495          	1.55620110e-01	2.09468830e-04	2.96118190e-04	1.39807150e-04	0.00000000e+00
11.5            	1.03288780e-01	2.09319430e-04	2.95575690e-04	1.45816360e-04	0.00000000e+00
11.505          	7.76094250e-02	2.09167700e-04	2.95030610e-04	9.92445810e-05	0.00000000e+00
11.51           	2.26532150e-01	2.09013740e-04	2.94483100e-04	2.12142030e-04	0.00000000e+00
11.515          	1.18197240e-01	2.08857450e-04	2.93933040e-04	1.57458910e-04	0.00000000e+00
11.52           	9.57135890e-02	2.08698940e-04	2.93380580e-04	1.57812190e-04	0.00000000e+00
11.525          	2.01689470e-01	2.08538160e-04	2.92825640e-04	1.87744470e-04	0.00000000e+00
11.53           	1.14732100e-01	2.08375080e-04	2.92268210e-04	1.35318720e-04	0.00000000e+00
11.535          	9.02964840e-02	2.08209810e-04	2.91708420e-04	1.74562650e-04	0.00000000e+00
11.54           	2.40696910e-01	2.08042300e-04	2.91146210e-04	1.31155190e-04	0.00000000e+00
11.545          	2.36083960e-01	2.07872540e-04	2.90581580e-04	1.39033100e-04	0.00000000e+00
11.55           	3.41624570e-01	2.07700560e-04	2.90014580e-04	1.98885440e-04	0.00000000e+00
11.555          	1.65526060e-01	2.07526370e-04	2.89445200e-04	1.16655520e-04	0.00000000e+00
11.56           	6.90840870e-02	2.07349930e-04	2.88873430e-04	2.14657250e-04	0.00000000e+00
11.565          	1.58129570e-01	2.07171350e-04	2.88299390e-04	2.14273650e-04	0.00000000e+00
11.57           	8.21148390e-02	2.06990560e-04	2.87723010e-04	2.43408470e-04	0.00000000e+00
11.575          	1.14222680e-01	2.06807590e-04	2.87144300e-04	2.05089430e-04	0.00000000e+00
11.58           	7.50470100e-02	2.06622430e-04	2.86563310e-04	2.01082440e-04	0.00000000e+00
11.585          	1.55098010e-01	2.06435110e-04	2.85980020e-04	1.58124310e-04	0.00000000e+00
11.59           	2.58853380e-01	2.06245620e-04	2.85394470e-04	1.51539410e-04	0.00000000e+00
11.595          	9.60726120e-02	2.06053980e-04	2.84806670e-04	2.74390100e-04	0.00000000e+00
11.6            	3.08010050e-01	2.05860190e-04	2.84216630e-04	2.65619100e-04	0.00000000e+00
11.605          	1.59317870e-01	2.05664230e-04	2.83624310e-04	2.07961110e-04	0.00000000e+00
11.61           	1.57186600e-01	2.05466160e-04	2.83029820e-04	1.54008610e-04	0.00000000e+00
11.615          	1.82269920e-01	2.05265970e-04	2.82433140e-04	1.73131340e-04	0.00000000e+00
11.62           	8.33605920e-02	2.05063670e-04	2.81834280e-04	1.92043990e-04	0.00000000e+00
11.625          	1.09785360e-01	2.04859270e-04	2.81233250e-04	1.68339440e-04	0.00000000e+00
11.63           	1.00900140e-01	2.04652790e-04	2.80630110e-04	1.60930080e-04	0.00000000e+00
11.635          	1.06196720e-01	2.04444200e-04	2.80024810e-04	1.93862330e-04	0.00000000e+00
11.64           	1.59790950e-01	2.04233490e-04	2.79417320e-04	1.42769310e-04	0.00000000e+00
11.645          	4.08147850e-01	2.04020720e-04	2.78807740e-04	1.73623890e-04	0.00000000e+00
11.65           	1.84397960e-01	2.03805920e-04	2.78196130e-04	1.50600520e-04	0.00000000e+00
11.655          	9.64786030e-02	2.03589030e-04	2.77582400e-04	1.43599590e-04	0.00000000e+00
11.66           	1.27644680e-01	2.03370090e-04	2.76966590e-04	1.65935000e-04	0.00000000e+00
11.665          	3.67850890e-01	2.03149100e-04	2.76348720e-04	1.11399390e-04	0.00000000e+00
11.67           	1.87835020e-01	2.02926070e-04	2.75728810e-04	1.78195020e-04	0.00000000e+00
11.675          	1.88874500e-01	2.02701020e-04	2.75106870e-04	1.18598330e-04	0.00000000e+00
11.68           	1.24560530e-01	2.02473940e-04	2.74482920e-04	7.15815390e-05	0.00000000e+00
11.685          	2.21418020e-01	2.02244810e-04	2.73856920e-04	8.57431560e-05	0.00000000e+00
11.69           	9.66188390e-02	2.02013730e-04	2.73229010e-04	9.16828970e-05	0.00000000e+00
11.695          	1.30867360e-01	2.01780610e-04	2.72599060e-04	1.61131750e-04	0.00000000e+00
11.7            	2.63970720e-01	2.01545540e-04	2.71967220e-04	1.13883240e-04	0.00000000e+00
11.705          	2.10014940e-01	2.01308450e-04	2.71333360e-04	1.15627360e-04	0.00000000e+00
11.71           	1.26450910e-01	2.01069390e-04	2.70697600e-04	7.25404290e-05	0.00000000e+00
11.715          	9.02981230e-02	2.00828410e-04	2.70059970e-04	1.18672330e-04	0.00000000e+00
11.72           	1.34717770e-01	2.00585450e-04	2.69420410e-04	1.06446510e-04	0.00000000e+00
11.725          	1.26954000e-01	2.00340530e-04	2.68778950e-04	9.39194140e-05	0.00000000e+00
11.73           	1.46153000e-01	2.00093670e-04	2.68135610e-04	8.60364240e-05	0.00000000e+00
11.735          	2.30997000e-01	1.99844840e-04	2.67490370e-04	7.40632310e-05	0.00000000e+00
11.74           	1.35449290e-01	1.99594110e-04	2.66843300e-04	8.09993810e-05	0.00000000e+00
11.745          	2.06232930e-01	1.99341460e-04	2.66194410e-04	6.45043240e-05	0.00000000e+00
11.75           	1.16577580e-01	1.99086930e-04	2.65543740e-04	1.01923330e-04	0.00000000e+00
11.755          	2.02437490e-01	1.98830490e-04	2.64891230e-04	9.95346610e-05	0.00000000e+00
11.76           	2.61053610e-01	1.98572140e-04	2.64236920e-04	1.86796990e-04	0.00000000e+00
11.765          	1.48311700e-01	1.98311910e-04	2.63580820e-04	1.21365070e-04	0.00000000e+00
11.77           	3.47530090e-01	1.98049790e-04	2.62922950e-04	1.25352380e-04	0.00000000e+00
11.775          	7.48547750e-02	1.97785780e-04	2.62263290e-04	1.46554930e-04	0.00000000e+00
11.78           	3.87345920e-01	1.97519920e-04	2.61601910e-04	1.98525940e-04	0.00000000e+00
11.785          	1.25325760e-01	1.97252220e-04	2.60938810e-04	8.55068640e-05	0.00000000e+00
11.79           	1.44425940e-01	1.96982670e-04	2.60274010e-04	8.53413340e-05	0.00000000e+00
11.795          	8.23681120e-02	1.96711290e-04	2.59607500e-04	9.94312620e-05	0.00000000e+00
11.8            	3.99838310e-01	1.96438080e-04	2.58939300e-04	9.86678280e-05	0.00000000e+00
11.805          	1.50357450e-01	1.96163050e-04	2.58269430e-04	1.28575180e-04	0.00000000e+00
11.81           	7.83432070e-02	1.95886200e-04	2.57597900e-04	9.81716840e-05	0.00000000e+00
11.815          	8.49327750e-02	1.95607580e-04	2.56924760e-04	7.84399280e-05	0.00000000e+00
11.82           	8.52608600e-02	1.95327140e-04	2.56249960e-04	7.13201500e-05	0.00000000e+00
11.825          	7.41564410e-02	1.95044900e-04	2.55573520e-04	9.38137290e-05	0.00000000e+00
11.83           	7.20165110e-02	1.94760890e-04	2.54895480e-04	1.03529670e-04	0.00000000e+00
11.835          	8.66402800e-02	1.94475100e-04	2.54215840e-04	1.17721910e-04	0.00000000e+00
11.84           	3.08007750e-01	1.94187510e-04	2.53534570e-04	9.32154300e-05	0.00000000e+00
11.845          	9.35481650e-02	1.93898190e-04	2.52851760e-04	1.18336650e-04	0.00000000e+00
11.85           	9.47597920e-02	1.93607130e-04	2.52167410e-04	1.42366240e-04	0.00000000e+00
11.855          	1.22131420e-01	1.93314330e-04	2.51481510e-04	1.25284980e-04	0.00000000e+00
11.86           	2.34803820e-01	1.93019810e-04	2.50794090e-04	1.59264630e-04	0.00000000e+00
11.865          	2.86995260e-01	1.92723550e-04	2.50105150e-04	1.23853620e-04	0.00000000e+00
11.87           	1.35934910e-01	1.92425590e-04	2.49414710e-04	1.70264020e-04	0.00000000e+00
11.875          	8.20475580e-02	1.92125940e-04	2.48722810e-04	1.32010830e-04	0.00000000e+00
11.88           	2.79083010e-01	1.91824550e-04	2.48029370e-04	1.44861760e-04	0.00000000e+00
11.885          	1.38626170e-01	1.91521480e-04	2.47334480e-04	1.20730190e-04	0.00000000e+00
11.89           	2.49915980e-01	1.91216770e-04	2.46638190e-04	2.07062300e-04	0.00000000e+00
11.895          	1.35588350e-01	1.90910330e-04	2.45940390e-04	1.43925360e-04	0.00000000e+00
11.9            	4.40181980e-01	1.90602240e-04	2.45241180e-04	1.13076020e-04	0.00000000e+00
11.905          	1.35025390e-01	1.90292500e-04	2.44540570e-04	9.01322660e-05	0.00000000e+00
11.91           	2.66278860e-01	1.89981140e-04	2.43838590e-04	1.34898170e-04	0.00000000e+00
11.915          	1.25526070e-01	1.89668110e-04	2.43135200e-04	1.15872810e-04	0.00000000e+00
11.92           	8.95875080e-02	1.89353460e-04	2.42430430e-04	1.10877560e-04	0.00000000e+00
11.925          	1.54945210e-01	1.89037140e-04	2.41724250e-04	1.16594020e-04	0.00000000e+00
11.93           	1.01005490e-01	1.88719260e-04	2.41016790e-04	7.26273770e-05	0.00000000e+00
11.935          	1.97443560e-01	1.88399730e-04	2.40307930e-04	7.50280960e-05	0.00000000e+00
11.94           	8.57389410e-02	1.88078640e-04	2.39597810e-04	6.29077300e-05	0.00000000e+00
11.945          	2.41353060e-01	1.87755920e-04	2.38886310e-04	1.22727030e-04	0.00000000e+00
11.95           	2.02457980e-01	1.87431630e-04	2.38173540e-04	8.78768570e-05	0.00000000e+00
11.955          	1.78119750e-01	1.87105800e-04	2.37459520e-04	8.40067650e-05	0.00000000e+00
11.96           	1.34558700e-01	1.86778360e-04	2.36744170e-04	1.34603800e-04	0.00000000e+00
11.965          	1.62622080e-01	1.86449400e-04	2.36027610e-04	9.58771060e-05	0.00000000e+00
11.97           	9.36078670e-02	1.86118870e-04	2.35309780e-04	1.03346770e-04	0.00000000e+00
11.975          	1.06077660e-01	1.85786810e-04	2.34590700e-04	1.00183390e-04	0.00000000e+00
11.98           	5.70865290e-02	1.85453170e-04	2.33870370e-04	1.84792710e-04	0.00000000e+00
11.985          	1.07759660e-01	1.85118060e-04	2.33148880e-04	1.32726170e-04	0.00000000e+00
11.99           	7.18327360e-02	1.84781430e-04	2.32426170e-04	9.41376520e-05	0.00000000e+00
11.995          	8.04902010e-02	1.84443270e-04	2.31702270e-04	1.39350130e-04	0.00000000e+00
12              	1.90129910e-01	1.84103590e-04	2.30977160e-04	1.20770950e-04	0.00000000e+00
12.005          	1.53079430e-01	1.83762470e-04	2.30250940e-04	1.37329390e-04	0.00000000e+00
12.01           	3.83296250e-01	1.83419850e-04	2.29523560e-04	1.22837910e-04	0.00000000e+00
12.015          	3.99292800e-01	1.83075720e-04	2.28794990e-04	1.32130210e-04	0.00000000e+00
12.02           	6.64620610e-02	1.82730140e-04	2.28065330e-04	2.03791850e-04	0.00000000e+00
12.025          	2.26494140e-01	1.82383120e-04	2.27334550e-04	1.30346490e-04	0.00000000e+00
12.03           	2.98615280e-01	1.82034640e-04	2.26602680e-04	1.53998160e-04	0.00000000e+00
12.035          	2.06789970e-01	1.81684720e-04	2.25869710e-04	2.37039160e-04	0.00000000e+00
12.04           	7.51945810e-02	1.81333400e-04	2.25135710e-04	2.26096930e-04	0.00000000e+00
12.045          	2.16336940e-01	1.80980630e-04	2.24400610e-04	1.26870970e-04	0.00000000e+00
12.05           	7.20483450e-02	1.80626410e-04	2.23664420e-04	8.46710370e-05	0.00000000e+00
12.055          	2.29506570e-01	1.80270800e-04	2.22927210e-04	1.04212930e-04	0.00000000e+00
12.06           	1.61650670e-01	1.79913830e-04	2.22189010e-04	9.67929060e-05	0.00000000e+00
12.065          	2.59840580e-01	1.79555420e-04	2.21449730e-04	7.61893630e-05	0.00000000e+00
12.07           	1.10453520e-01	1.79195660e-04	2.20709500e-04	7.54622070e-05	0.00000000e+00
12.075          	9.89795840e-02	1.78834520e-04	2.19968260e-04	1.02891460e-04	0.00000000e+00
12.08           	4.52629940e-02	1.78472000e-04	2.19226030e-04	1.51481880e-04	0.00000000e+00
12.085          	1.12254730e-01	1.78108100e-04	2.18482800e-04	1.35596840e-04	0.00000000e+00
12.09           	1.27986450e-01	1.77742870e-04	2.17738630e-04	1.36075060e-04	0.00000000e+00
12.095          	2.28788260e-01	1.77376300e-04	2.16993520e-04	1.22840200e-04	0.00000000e+00
12.1            	2.62919020e-01	1.77008400e-04	2.16247470e-04	8.30931170e-05	0.00000000e+00
12.105          	3.15273250e-01	1.76639200e-04	2.15500540e-04	9.74843190e-05	0.00000000e+00
12.11           	1.16947100e-01	1.76268670e-04	2.14752680e-04	1.12134190e-04	0.00000000e+00
12.115          	1.58804900e-01	1.75896820e-04	2.14003900e-04	8.72034660e-05	0.00000000e+00
12.12           	1.67656250e-01	1.75523640e-04	2.13254210e-04	9.09017160e-05	0.00000000e+00
12.125          	1.06954480e-01	1.75149220e-04	2.12503690e-04	1.80447250e-04	0.00000000e+00
12.13           	1.34532650e-01	1.74773500e-04	2.11752300e-04	7.87728450e-05	0.00000000e+00
12.135          	1.48036680e-01	1.74396470e-04	2.11000010e-04	1.20014090e-04	0.00000000e+00
12.14           	1.75251110e-01	1.74018190e-04	2.10246900e-04	6.08370140e-05	0.00000000e+00
12.145          	7.29685580e-02	1.73638660e-04	2.09492970e-04	1.32995750e-04	0.00000000e+00
12.15           	1.28112410e-01	1.73257910e-04	2.08738250e-04	5.96008970e-05	0.00000000e+00
12.155          	1.11945880e-01	1.72875870e-04	2.07982680e-04	1.53413970e-04	0.00000000e+00
12.16           	1.33965500e-01	1.72492640e-04	2.07226350e-04	1.71026440e-04	0.00000000e+00
12.165          	2.28622370e-01	1.72108160e-04	2.06469230e-04	9.90448030e-05	0.00000000e+00
12.17           	1.85515890e-01	1.71722470e-04	2.05711330e-04	1.09237160e-04	0.00000000e+00
12.175          	8.40046780e-02	1.71335560e-04	2.04952660e-04	2.41570290e-04	0.00000000e+00
12.18           	2.22657670e-01	1.70947430e-04	2.04193210e-04	1.25033010e-04	0.00000000e+00
12.185          	1.25362450e-01	1.70558120e-04	2.03433050e-04	8.12372650e-05	0.00000000e+00
12.19           	1.17846270e-01	1.70167660e-04	2.02672190e-04	1.44548620e-04	0.00000000e+00
12.195          	1.31976530e-01	1.69776000e-04	2.01910600e-04	1.60062150e-04	0.00000000e+00
12.2            	1.92933610e-01	1.69383150e-04	2.01148270e-04	1.25135480e-04	0.00000000e+00
12.205          	2.48755360e-01	1.68989160e-04	2.00385270e-04	1.32912020e-04	0.00000000e+00
12.21           	1.01596260e-01	1.68594040e-04	1.99621610e-04	1.38221260e-04	0.00000000e+00
12.215          	6.86361060e-02	1.68197740e-04	1.98857240e-04	1.52862280e-04	0.00000000e+00
12.22           	2.10925150e-01	1.67800340e-04	1.98092260e-04	1.71970460e-04	0.00000000e+00
12.225          	1.49272580e-01	1.67401780e-04	1.97326580e-04	2.26026610e-04	0.00000000e+00
12.23           	1.01218820e-01	1.67002110e-04	1.96560270e-04	1.62076750e-04	0.00000000e+00
12.235          	1.54390660e-01	1.66601330e-04	1.95793350e-04	1.39292750e-04	0.00000000e+00
12.24           	1.58466560e-01	1.66199450e-04	1.95025810e-04	1.26945540e-04	0.00000000e+00
12.245          	6.99262910e-02	1.65796510e-04	1.94257690e-04	1.59945450e-04	0.00000000e+00
12.25           	2.12669500e-01	1.65392460e-04	1.93488970e-04	2.16563170e-04	0.00000000e+00
12.255          	8.05938400e-02	1.64987330e-04	1.92719650e-04	2.06782020e-04	0.00000000e+00
12.26           	6.44144920e-02	1.64581110e-04	1.91949730e-04	1.10126040e-04	0.00000000e+00
12.265          	8.49119630e-02	1.64173830e-04	1.91179270e-04	1.42368200e-04	0.00000000e+00
12.27           	3.39684570e-01	1.63765540e-04	1.90408290e-04	1.18902530e-04	0.00000000e+00
12.275          	1.83723390e-01	1.63356180e-04	1.89636760e-04	1.40255600e-04	0.00000000e+00
12.28           	6.94808550e-02	1.62945770e-04	1.88864660e-04	1.70255910e-04	0.00000000e+00
12.285          	1.82909240e-01	1.62534330e-04	1.88092070e-04	1.19200840e-04	0.00000000e+00
12.29           	3.91180010e-01	1.62121880e-04	1.87318970e-04	1.08379490e-04	0.00000000e+00
12.295          	2.45079930e-01	1.61708450e-04	1.86545400e-04	2.11493820e-04	0.00000000e+00
12.3            	1.48948970e-01	1.61293970e-04	1.85771310e-04	1.78855970e-04	0.00000000e+00
12.305          	7.98063000e-02	1.60878500e-04	1.84996750e-04	1.37249740e-04	0.00000000e+00
12.31           	3.21200250e-01	1.60462080e-04	1.84221760e-04	1.46622750e-04	0.00000000e+00
12.315          	1.55979940e-01	1.60044660e-04	1.83446300e-04	9.42689290e-05	0.00000000e+00
12.32           	1.15035820e-01	1.59626240e-04	1.82670360e-04	1.41291850e-04	0.00000000e+00
12.325          	7.42771550e-02	1.59206890e-04	1.81894040e-04	1.14583500e-04	0.00000000e+00
12.33           	6.38515400e-02	1.58786580e-04	1.81117280e-04	1.77166650e-04	0.00000000e+00
12.335          	2.11486010e-01	1.58365290e-04	1.80340080e-04	9.46979970e-05	0.00000000e+00
12.34           	1.00128050e-01	1.57943100e-04	1.79562520e-04	1.69363780e-04	0.00000000e+00
12.345          	1.38770610e-01	1.57519950e-04	1.78784530e-04	1.19314050e-04	0.00000000e+00
12.35           	1.79277430e-01	1.57095880e-04	1.78006170e-04	9.80600630e-05	0.00000000e+00
12.355          	1.73816470e-01	1.56670930e-04	1.77227480e-04	1.02139040e-04	0.00000000e+00
12.36           	1.36055620e-01	1.56245060e-04	1.76448410e-04	1.31146410e-04	0.00000000e+00
12.365          	1.08222020e-01	1.55818260e-04	1.75668960e-04	1.01861920e-04	0.00000000e+00
12.37           	1.36267620e-01	1.55390600e-04	1.74889220e-04	7.66495950e-05	0.00000000e+00
12.375          	1.22815430e-01	1.54962030e-04	1.74109110e-04	1.69136890e-04	0.00000000e+00
12.38           	8.87863240e-02	1.54532590e-04	1.73328690e-04	8.69399430e-05	0.00000000e+00
12.385          	8.92106530e-02	1.54102290e-04	1.72547970e-04	1.47209520e-04	0.00000000e+00
12.39           	1.94218280e-01	1.53671140e-04	1.71766950e-04	1.19453400e-04	0.00000000e+00
12.395          	2.04155280e-01	1.53239150e-04	1.70985680e-04	9.26451880e-05	0.00000000e+00
12.4            	1.57635660e-01	1.52806290e-04	1.70204080e-04	6.98903420e-05	0.00000000e+00
12.405          	1.92013370e-01	1.52372620e-04	1.69422250e-04	1.81886460e-04	0.00000000e+00
12.41           	1.73594910e-01	1.51938110e-04	1.68640160e-04	1.22109370e-04	0.00000000e+00
12.415          	1.09169100e-01	1.51502780e-04	1.67857810e-04	8.50631860e-05	0.00000000e+00
12.42           	2.92531170e-01	1.51066620e-04	1.67075200e-04	9.35621930e-05	0.00000000e+00
12.425          	1.56513750e-01	1.50629660e-04	1.66292380e-04	1.05801400e-04	0.00000000e+00
12.43           	1.45914590e-01	1.50191920e-04	1.65509340e-04	1.75303980e-04	0.00000000e+00
12.435          	1.40387200e-01	1.49753390e-04	1.64726110e-04	1.07268600e-04	0.00000000e+00
12.44           	1.17089130e-01	1.49314100e-04	1.63942700e-04	1.02252790e-04	0.00000000e+00
12.445          	8.63282390e-02	1.48874030e-04	1.63159090e-04	1.63694690e-04	0.00000000e+00
12.45           	3.11412670e-01	1.48433160e-04	1.62375270e-04	1.21375870e-04	0.00000000e+00
12.455          	1.06365750e-01	1.47991560e-04	1.61591290e-04	1.89438010e-04	0.00000000e+00
12.46           	2.40920700e-01	1.47549220e-04	1.60807190e-04	1.00960750e-04	0.00000000e+00
12.465          	1.65849100e-01	1.47106120e-04	1.60022910e-04	1.05347260e-04	0.00000000e+00
12.47           	8.13179030e-02	1.46662310e-04	1.59238520e-04	1.60447270e-04	0.00000000e+00
12.475          	2.05262200e-01	1.46217770e-04	1.58453990e-04	9.60162450e-05	0.00000000e+00
12.48           	2.30371790e-01	1.45772510e-04	1.57669340e-04	1.51936710e-04	0.00000000e+00
12.485          	1.53930800e-01	1.45326520e-04	1.56884560e-04	1.30102830e-04	0.00000000e+00
12.49           	1.63271950e-01	1.44879840e-04	1.56099690e-04	1.23116640e-04	0.00000000e+00
12.495          	1.84055160e-01	1.44432470e-04	1.55314740e-04	1.48339590e-04	0.00000000e+00
12.5            	8.94437610e-02	1.43984410e-04	1.54529710e-04	8.21776270e-05	0.00000000e+00
12.505          	9.62500340e-02	1.43535680e-04	1.53744610e-04	8.45668100e-05	0.00000000e+00
12.51           	9.23019070e-02	1.43086280e-04	1.52959450e-04	9.03137560e-05	0.00000000e+00
12.515          	2.30648600e-01	1.42636220e-04	1.52174240e-04	1.02604990e-04	0.00000000e+00
12.52           	1.47497150e-01	1.42185520e-04	1.51389010e-04	6.74653200e-05	0.00000000e+00
12.525          	1.57456690e-01	1.41734160e-04	1.50603740e-04	9.12159690e-05	0.00000000e+00
12.53           	1.02698880e-01	1.41282130e-04	1.49818410e-04	8.22199230e-05	0.00000000e+00
12.535          	1.14057460e-01	1.40829510e-04	1.49033110e-04	9.74207990e-05	0.00000000e+00
12.54           	3.24692310e-01	1.40376250e-04	1.48247790e-04	6.12410620e-05	0.00000000e+00
12.545          	3.26713160e-01	1.39922380e-04	1.47462480e-04	1.05492440e-04	0.00000000e+00
12.55           	1.18990460e-01	1.39467890e-04	1.46677170e-04	1.37192120e-04	0.00000000e+00
12.555          	7.20589210e-02	1.39012810e-04	1.45891900e-04	8.74289980e-05	0.00000000e+00
12.56           	2.37612470e-01	1.38557130e-04	1.45106660e-04	1.33430340e-04	0.00000000e+00
12.565          	1.07573450e-01	1.38100860e-04	1.44321460e-04	1.17207150e-04	0.00000000e+00
12.57           	1.20881790e-01	1.37644020e-04	1.43536310e-04	9.93381780e-05	0.00000000e+00
12.575          	5.66147150e-02	1.37186600e-04	1.42751220e-04	7.22046630e-05	0.00000000e+00
12.58           	6.99514720e-02	1.36728620e-04	1.41966210e-04	1.16865080e-04	0.00000000e+00
12.585          	8.15030300e-02	1.36270090e-04	1.41181270e-04	1.22650650e-04	0.00000000e+00
12.59           	7.38701800e-02	1.35810990e-04	1.40396400e-04	6.75315190e-05	0.00000000e+00
12.595          	1.31927490e-01	1.35351380e-04	1.39611670e-04	7.24671600e-05	0.00000000e+00
12.6            	3.76523440e-01	1.34891210e-04	1.38827010e-04	7.24808770e-05	0.00000000e+00
12.605          	6.60549730e-02	1.34430530e-04	1.38042480e-04	1.02081380e-04	0.00000000e+00
12.61           	9.62580030e-02	1.33969330e-04	1.37258080e-04	1.63403150e-04	0.00000000e+00
12.615          	2.24905440e-01	1.33507620e-04	1.36473820e-04	1.39870130e-04	0.00000000e+00
12.62           	8.62003360e-02	1.33045410e-04	1.35689700e-04	1.75911640e-04	0.00000000e+00
12.625          	1.04731310e-01	1.32582730e-04	1.34905750e-04	1.51500730e-04	0.00000000e+00
12.63           	1.78472870e-01	1.32119520e-04	1.34121930e-04	1.59329880e-04	0.00000000e+00
12.635          	1.54199280e-01	1.31655860e-04	1.33338300e-04	1.49618580e-04	0.00000000e+00
12.64           	1.17340690e-01	1.31191700e-04	1.32554830e-04	2.55485570e-04	0.00000000e+00
12.645          	2.43072330e-01	1.30727100e-04	1.31771570e-04	1.52554080e-04	0.00000000e+00
12.65           	9.57447130e-02	1.30262020e-04	1.30988490e-04	1.58079360e-04	0.00000000e+00
12.655          	1.12672270e-01	1.29796500e-04	1.30205610e-04	1.57993550e-04	0.00000000e+00
12.66           	1.58639580e-01	1.29330550e-04	1.29422970e-04	1.05824950e-04	0.00000000e+00
12.665          	1.30804120e-01	1.28864140e-04	1.28640530e-04	1.38642400e-04	0.00000000e+00
12.67           	1.76749780e-01	1.28397320e-04	1.27858340e-04	1.16883340e-04	0.00000000e+00
12.675          	1.30620640e-01	1.27930060e-04	1.27076370e-04	1.51007880e-04	0.00000000e+00
12.68           	2.38954540e-01	1.27462410e-04	1.26294670e-04	1.54732480e-04	0.00000000e+00
12.685          	3.06983290e-01	1.26994320e-04	1.25513200e-04	1.02307240e-04	0.00000000e+00
12.69           	2.91519790e-01	1.26525850e-04	1.24732010e-04	1.99866330e-04	0.00000000e+00
12.695          	1.44636740e-01	1.26057000e-04	1.23951120e-04	2.01549010e-04	0.00000000e+00
12.7            	1.35105130e-01	1.25587760e-04	1.23170490e-04	1.38829330e-04	0.00000000e+00
12.705          	4.70803730e-01	1.25118140e-04	1.22390160e-04	1.38746900e-04	0.00000000e+00
12.71           	5.61493800e-02	1.24648130e-04	1.21610100e-04	1.57258610e-04	0.00000000e+00
12.715          	1.01761140e-01	1.24177770e-04	1.20830370e-04	2.16472240e-04	0.00000000e+00
12.72           	3.05476330e-01	1.23707050e-04	1.20050960e-04	1.65549930e-04	0.00000000e+00
12.725          	8.24336840e-02	1.23235990e-04	1.19271870e-04	1.22980710e-04	0.00000000e+00
12.73           	1.85678770e-01	1.22764600e-04	1.18493140e-04	1.31449810e-04	0.00000000e+00
12.735          	1.32738060e-01	1.22292870e-04	1.17714740e-04	1.09083370e-04	0.00000000e+00
12.74           	1.86393850e-01	1.21820800e-04	1.16936680e-04	1.06581380e-04	0.00000000e+00
12.745          	1.31096740e-01	1.21348400e-04	1.16158970e-04	7.57439070e-05	0.00000000e+00
12.75           	1.47889480e-01	1.20875710e-04	1.15381650e-04	6.60086120e-05	0.00000000e+00
12.755          	1.35507540e-01	1.20402710e-04	1.14604700e-04	5.72247420e-05	0.00000000e+00
12.76           	1.87646750e-01	1.19929400e-04	1.13828110e-04	8.36519800e-05	0.00000000e+00
12.765          	1.29254130e-01	1.19455800e-04	1.13051930e-04	7.63821650e-05	0.00000000e+00
12.77           	2.87754640e-01	1.18981930e-04	1.12276170e-04	5.49649810e-05	0.00000000e+00
12.775          	1.46562120e-01	1.18507780e-04	1.11500800e-04	7.75930840e-05	0.00000000e+00
12.78           	1.89995250e-01	1.18033340e-04	1.10725830e-04	1.19683210e-04	0.00000000e+00
12.785          	1.12922910e-01	1.17558640e-04	1.09951300e-04	8.82766840e-05	0.00000000e+00
12.79           	1.87899880e-01	1.17083690e-04	1.09177200e-04	9.34237900e-05	0.00000000e+00
12.795          	2.65003720e-01	1.16608490e-04	1.08403550e-04	9.28641810e-05	0.00000000e+00
12.8            	1.02540960e-01	1.16133050e-04	1.07630340e-04	1.73333220e-04	0.00000000e+00
12.805          	1.11953650e-01	1.15657380e-04	1.06857600e-04	1.55865120e-04	0.00000000e+00
12.81           	5.22153160e-02	1.15181490e-04	1.06085330e-04	1.71339730e-04	0.00000000e+00
12.815          	1.24958200e-01	1.14705360e-04	1.05313510e-04	1.36480700e-04	0.00000000e+00
12.82           	2.05619780e-01	1.14229010e-04	1.04542170e-04	1.48237650e-04	0.00000000e+00
12.825          	9.47769070e-02	1.13752480e-04	1.03771350e-04	2.08177330e-04	0.00000000e+00
12.83           	1.70339610e-01	1.13275720e-04	1.03000990e-04	1.52063450e-04	0.00000000e+00
12.835          	9.73433320e-02	1.12798770e-04	1.02231150e-04	1.56834510e-04	0.00000000e+00
12.84           	6.82666080e-02	1.12321650e-04	1.01461840e-04	1.68519950e-04	0.00000000e+00
12.845          	1.78993440e-01	1.11844350e-04	1.00693030e-04	1.17889550e-04	0.00000000e+00
12.85           	7.20762240e-02	1.11366860e-04	9.99247570e-05	1.00745650e-04	0.00000000e+00
12.855          	2.64614120e-01	1.10889210e-04	9.91570140e-05	1.16302170e-04	0.00000000e+00
12.86           	5.36450380e-02	1.10411380e-04	9.83898000e-05	1.07595210e-04	0.00000000e+00
12.865          	1.81671030e-01	1.09933410e-04	9.76231470e-05	2.09544960e-04	0.00000000e+00
12.87           	1.20723800e-01	1.09455300e-04	9.68570550e-05	9.94572430e-05	0.00000000e+00
12.875          	1.42999600e-01	1.08977050e-04	9.60915310e-05	1.52602920e-04	0.00000000e+00
12.88           	1.09804790e-01	1.08498660e-04	9.53265810e-05	1.48979100e-04	0.00000000e+00
12.885          	1.41239650e-01	1.08020170e-04	9.45622270e-05	1.51325830e-04	0.00000000e+00
12.89           	1.41973200e-01	1.07541520e-04	9.37984390e-05	2.00897000e-04	0.00000000e+00
12.895          	9.43817210e-02	1.07062790e-04	9.30352670e-05	1.05459410e-04	0.00000000e+00
12.9            	3.16775530e-01	1.06583930e-04	9.22726790e-05	1.27702450e-04	0.00000000e+00
12.905          	2.10077010e-01	1.06104980e-04	9.15107100e-05	1.33707840e-04	0.00000000e+00
12.91           	8.76001480e-02	1.05625930e-04	9.07493620e-05	1.55102370e-04	0.00000000e+00
12.915          	2.03091400e-01	1.05146810e-04	8.99886550e-05	1.20907190e-04	0.00000000e+00
12.92           	1.18834320e-01	1.04667610e-04	8.92285730e-05	1.31615700e-04	0.00000000e+00
12.925          	1.08685960e-01	1.04188310e-04	8.84691170e-05	1.70047560e-04	0.00000000e+00
12.93           	2.88883740e-01	1.03708960e-04	8.77103170e-05	1.33915700e-04	0.00000000e+00
12.935          	1.67003600e-01	1.03229540e-04	8.69521770e-05	1.60342180e-04	0.00000000e+00
12.94           	3.70519400e-01	1.02750080e-04	8.61947000e-05	1.23438380e-04	0.00000000e+00
12.945          	1.78979040e-01	1.02270570e-04	8.54378950e-05	1.20329860e-04	0.00000000e+00
12.95           	7.46307350e-02	1.01791010e-04	8.46817680e-05	1.20318260e-04	0.00000000e+00
12.955          	1.17058600e-01	1.01311440e-04	8.39263390e-05	1.24786070e-04	0.00000000e+00
12.96           	9.02857640e-02	1.00831830e-04	8.31715930e-05	1.34310750e-04	0.00000000e+00
12.965          	5.51523630e-02	1.00352190e-04	8.24175450e-05	1.49081140e-04	0.00000000e+00
12.97           	2.53993320e-01	9.98725430e-05	8.16642030e-05	1.35910020e-04	0.00000000e+00
12.975          	1.02815850e-01	9.93928820e-05	8.09115740e-05	1.12703070e-04	0.00000000e+00
12.98           	1.72721720e-01	9.89132070e-05	8.01596550e-05	1.12076740e-04	0.00000000e+00
12.985          	1.39247840e-01	9.84335440e-05	7.94084720e-05	1.30370300e-04	0.00000000e+00
12.99           	1.34515100e-01	9.79539070e-05	7.86580390e-05	1.04238660e-04	0.00000000e+00
12.995          	1.20687990e-01	9.74742800e-05	7.79083400e-05	8.28590100e-05	0.00000000e+00
13              	1.24664840e-01	9.69946600e-05	7.71593780e-05	1.53817740e-04	0.00000000e+00
13.005          	2.09521410e-01	9.65150770e-05	7.64111790e-05	9.34411250e-05	0.00000000e+00
13.01           	8.95355610e-02	9.60355460e-05	7.56637560e-05	6.68759560e-05	0.00000000e+00
13.015          	1.97126610e-01	9.55560360e-05	7.49170870e-05	4.42608170e-05	0.00000000e+00
13.02           	1.34740610e-01	9.50765800e-05	7.41711990e-05	6.37511010e-05	0.00000000e+00
13.025          	8.46623310e-02	9.45971930e-05	7.34261080e-05	7.54066270e-05	0.00000000e+00
13.03           	1.63549240e-01	9.41178590e-05	7.26818010e-05	1.07637070e-04	0.00000000e+00
13.035          	7.20170710e-02	9.36385770e-05	7.19382790e-05	1.07379730e-04	0.00000000e+00
13.04           	8.57737420e-02	9.31593750e-05	7.11955690e-05	1.59633840e-04	0.00000000e+00
13.045          	2.55941890e-01	9.26802670e-05	7.04536810e-05	9.46980640e-05	0.00000000e+00
13.05           	9.53021660e-02	9.22012370e-05	6.97126060e-05	8.99350950e-05	0.00000000e+00
13.055          	5.62796620e-02	9.17222970e-05	6.89723540e-05	1.12658070e-04	0.00000000e+00
13.06           	1.96452660e-01	9.12434520e-05	6.82329320e-05	7.98617960e-05	0.00000000e+00
13.065          	9.85955600e-02	9.07647110e-05	6.74943490e-05	1.12182470e-04	0.00000000e+00
13.07           	9.48472650e-02	9.02860680e-05	6.67566010e-05	1.24927580e-04	0.00000000e+00
13.075          	1.73746930e-01	8.98075490e-05	6.60197110e-05	7.54605620e-05	0.00000000e+00
13.08           	1.33944730e-01	8.93291660e-05	6.52836910e-05	7.67486740e-05	0.00000000e+00
13.085          	9.23643480e-02	8.88509030e-05	6.45485290e-05	1.01596800e-04	0.00000000e+00
13.09           	8.90404090e-02	8.83727610e-05	6.38142290e-05	8.34401570e-05	0.00000000e+00
13.095          	9.32034970e-02	8.78947760e-05	6.30808210e-05	8.52177500e-05	0.00000000e+00
13.1            	1.29276060e-01	8.74169330e-05	6.23482930e-05	6.77869080e-05	0.00000000e+00
13.105          	1.25322490e-01	8.69392390e-05	6.16166540e-05	1.10091290e-04	0.00000000e+00
13.11           	5.77821400e-02	8.64617020e-05	6.08859120e-05	1.25639160e-04	0.00000000e+00
13.115          	2.39653600e-01	8.59843280e-05	6.01560740e-05	1.08183660e-04	0.00000000e+00
13.12           	1.33963130e-01	8.55071240e-05	5.94271470e-05	1.07594500e-04	0.00000000e+00
13.125          	1.36993000e-01	8.50300950e-05	5.86991360e-05	6.38916220e-05	0.00000000e+00
13.13           	8.89191160e-02	8.45532360e-05	5.79720400e-05	8.77009380e-05	0.00000000e+00
13.135          	7.89427200e-02	8.40765710e-05	5.72458780e-05	8.31072330e-05	0.00000000e+00
13.14           	1.31493430e-01	8.36001130e-05	5.65206630e-05	7.06657180e-05	0.00000000e+00
13.145          	7.97910540e-02	8.31238470e-05	5.57963840e-05	8.17800670e-05	0.00000000e+00
13.15           	1.80534810e-01	8.26477720e-05	5.50730450e-05	1.09712020e-04	0.00000000e+00
13.155          	9.62162340e-02	8.21719240e-05	5.43506720e-05	8.86293720e-05	0.00000000e+00
13.16           	1.66945880e-01	8.16962880e-05	5.36292560e-05	5.56974320e-05	0.00000000e+00
13.165          	2.44387410e-01	8.12208610e-05	5.29087990e-05	6.44267320e-05	0.00000000e+00
13.17           	1.55388100e-01	8.07456780e-05	5.21893270e-05	7.68411840e-05	0.00000000e+00
13.175          	3.08835210e-01	8.02707130e-05	5.14708240e-05	1.11701820e-04	0.00000000e+00
13.18           	5.94577720e-02	7.97960020e-05	5.07533160e-05	7.30111050e-05	0.00000000e+00
13.185          	1.14891270e-01	7.93215310e-05	5.00367970e-05	9.13504250e-05	0.00000000e+00
13.19           	2.02169550e-01	7.88472970e-05	4.93212670e-05	1.05969750e-04	0.00000000e+00
13.195          	1.25588640e-01	7.83733260e-05	4.86067460e-05	5.93419640e-05	0.00000000e+00
13.2            	1.55845670e-01	7.78996280e-05	4.78932420e-05	9.36784040e-05	0.00000000e+00
13.205          	7.78975460e-02	7.74261800e-05	4.71807430e-05	8.75122580e-05	0.00000000e+00
13.21           	1.75346370e-01	7.69530100e-05	4.64692680e-05	8.14287360e-05	0.00000000e+00
13.215          	6.50791070e-02	7.64801190e-05	4.57588230e-05	7.02977260e-05	0.00000000e+00
13.22           	9.79890180e-02	7.60075120e-05	4.50494110e-05	5.41917680e-05	0.00000000e+00
13.225          	1.46572710e-01	7.55351940e-05	4.43410390e-05	5.18141500e-05	0.00000000e+00
13.23           	8.29775370e-02	7.50631810e-05	4.36337190e-05	7.75874900e-05	0.00000000e+00
13.235          	9.41872800e-02	7.45914600e-05	4.29274450e-05	7.51348910e-05	0.00000000e+00
13.24           	1.90275320e-01	7.41200430e-05	4.22222270e-05	5.08705990e-05	0.00000000e+00
13.245          	1.55861060e-01	7.36489270e-05	4.15180660e-05	4.64993420e-05	0.00000000e+00
13.25           	1.02989390e-01	7.31781320e-05	4.08149770e-05	5.84454810e-05	0.00000000e+00
13.255          	1.46164470e-01	7.27076710e-05	4.01129700e-05	5.91423870e-05	0.00000000e+00
13.26           	2.80303870e-01	7.22375310e-05	3.94120390e-05	5.92661050e-05	0.00000000e+00
13.265          	1.77069420e-01	7.17677210e-05	3.87121930e-05	8.05733050e-05	0.00000000e+00
13.27           	1.41378760e-01	7.12982490e-05	3.80134380e-05	6.50690740e-05	0.00000000e+00
13.275          	1.00139860e-01	7.08291100e-05	3.73157750e-05	7.28633540e-05	0.00000000e+00
13.28           	1.36437930e-01	7.03603250e-05	3.66192190e-05	1.32984110e-04	0.00000000e+00
13.285          	1.66310220e-01	6.98918960e-05	3.59237720e-05	8.14273660e-05	0.00000000e+00
13.29           	5.47633830e-02	6.94238350e-05	3.52294450e-05	1.00004600e-04	0.00000000e+00
13.295          	1.58101510e-01	6.89561330e-05	3.45362340e-05	9.04304730e-05	0.00000000e+00
13.3            	7.86352530e-02	6.84887980e-05	3.38441470e-05	8.07874080e-05	0.00000000e+00
13.305          	1.30895250e-01	6.80218370e-05	3.31531900e-05	9.01012330e-05	0.00000000e+00
13.31           	7.03578070e-02	6.75552550e-05	3.24633700e-05	6.47873140e-05	0.00000000e+00
13.315          	1.42141910e-01	6.70890490e-05	3.17746870e-05	8.15834220e-05	0.00000000e+00
13.32           	9.26176080e-02	6.66232480e-05	3.10871580e-05	1.04839430e-04	0.00000000e+00
13.325          	2.69113240e-01	6.61578380e-05	3.04007810e-05	1.73656150e-04	0.00000000e+00
13.33           	8.91589500e-02	6.56928270e-05	2.97155600e-05	1.01734020e-04	0.00000000e+00
13.335          	1.85755910e-01	6.52282210e-05	2.90315030e-05	1.36196840e-04	0.00000000e+00
13.34           	1.15400850e-01	6.47640170e-05	2.83486100e-05	9.65849560e-05	0.00000000e+00
13.345          	9.95649440e-02	6.43002330e-05	2.76668950e-05	9.12622380e-05	0.00000000e+00
13.35           	1.11204060e-01	6.38368720e-05	2.69863590e-05	1.03778580e-04	0.00000000e+00
13.355          	8.66576030e-02	6.33739380e-05	2.63070090e-05	8.08482130e-05	0.00000000e+00
13.36           	2.56751090e-01	6.29114340e-05	2.56288490e-05	8.90202940e-05	0.00000000e+00
13.365          	1.02626540e-01	6.24493650e-05	2.49518840e-05	6.72558540e-05	0.00000000e+00
13.37           	2.68598690e-01	6.19877450e-05	2.42761220e-05	1.01655720e-04	0.00000000e+00
13.375          	7.56294530e-02	6.15265650e-05	2.36015640e-05	9.25579840e-05	0.00000000e+00
13.38           	1.27003210e-01	6.10658250e-05	2.29282130e-05	8.11850180e-05	0.00000000e+00
13.385          	2.10431950e-01	6.06055460e-05	2.22560800e-05	8.18774530e-05	0.00000000e+00
13.39           	4.22689900e-01	6.01457280e-05	2.15851690e-05	6.48962140e-05	0.00000000e+00
13.395          	7.22907500e-02	5.96863750e-05	2.09154840e-05	9.10394540e-05	0.00000000e+00
13.4            	1.30891340e-01	5.92274930e-05	2.02470300e-05	6.35646420e-05	0.00000000e+00
13.405          	9.07653670e-02	5.87690850e-05	1.95798130e-05	7.69846810e-05	0.00000000e+00
13.41           	7.41326540e-02	5.83111640e-05	1.89138390e-05	6.86715140e-05	0.00000000e+00
13.415          	1.30799510e-01	5.78537150e-05	1.82491080e-05	7.08728190e-05	0.00000000e+00
13.42           	9.64341610e-02	5.73967660e-05	1.75856310e-05	6.61849100e-05	0.00000000e+00
13.425          	2.00179690e-01	5.69403060e-05	1.69234100e-05	8.33266020e-05	0.00000000e+00
13.43           	2.08125590e-01	5.64843440e-05	1.62624490e-05	8.02959570e-05	0.00000000e+00
13.435          	1.68333080e-01	5.60288770e-05	1.56027520e-05	7.33964850e-05	0.00000000e+00
13.44           	9.24052410e-02	5.55739300e-05	1.49443300e-05	8.25144720e-05	0.00000000e+00
13.445          	1.09822080e-01	5.51194920e-05	1.42871820e-05	1.23740820e-04	0.00000000e+00
13.45           	1.17327640e-01	5.46655640e-05	1.36313130e-05	1.09229720e-04	0.00000000e+00
13.455          	1.50687060e-01	5.42121680e-05	1.29767330e-05	5.97802360e-05	0.00000000e+00
13.46           	2.71148770e-01	5.37592960e-05	1.23234420e-05	5.47622510e-05	0.00000000e+00
13.465          	8.16668080e-02	5.33069530e-05	1.16714460e-05	6.10025380e-05	0.00000000e+00
13.47           	1.52518100e-01	5.28551460e-05	1.10207500e-05	7.02591680e-05	0.00000000e+00
13.475          	8.01543360e-02	5.24038790e-05	1.03713590e-05	1.45676070e-04	0.00000000e+00
13.48           	1.94240160e-01	5.19531570e-05	9.72327650e-06	1.04523990e-04	0.00000000e+00
13.485          	9.36191110e-02	5.15029770e-05	9.07650700e-06	8.04153850e-05	0.00000000e+00
13.49           	1.53023240e-01	5.10533560e-05	8.43105700e-06	1.05381820e-04	0.00000000e+00
13.495          	2.94985150e-01	5.06042940e-05	7.78693070e-06	1.53218310e-04	0.00000000e+00
13.5            	1.07849660e-01	5.01557950e-05	7.14413240e-06	1.18575720e-04	0.00000000e+00
13.505          	3.79663510e-01	4.97078700e-05	6.50266750e-06	7.94787260e-05	0.00000000e+00
13.51           	1.20329370e-01	4.92605070e-05	5.86253820e-06	1.37706870e-04	0.00000000e+00
13.515          	2.75346280e-01	4.88137270e-05	5.22375170e-06	1.49319350e-04	0.00000000e+00
13.52           	1.04283360e-01	4.83675260e-05	4.58631080e-06	1.27861380e-04	0.00000000e+00
13.525          	4.17528360e-01	4.79219070e-05	3.95022040e-06	1.55093140e-04	0.00000000e+00
13.53           	1.80285360e-01	4.74768780e-05	3.31548500e-06	1.57267690e-04	0.00000000e+00
13.535          	9.92794450e-02	4.70324360e-05	2.68210880e-06	1.60223980e-04	0.00000000e+00
13.54           	1.86854480e-01	4.65885950e-05	2.05009690e-06	1.51678620e-04	0.00000000e+00
13.545          	5.49483770e-01	4.61453640e-05	1.41945370e-06	1.69762850e-04	0.00000000e+00
13.55           	1.63005000e-01	4.57027290e-05	7.90182910e-07	2.77247740e-04	0.00000000e+00
13.555          	9.23426610e-02	4.52604380e-05	2.31132740e-07	1.83416500e-04	0.00000000e+00
13.56           	2.23282530e-01	4.48189350e-05	6.23003130e-07	1.33765150e-04	0.00000000e+00
13.565          	7.32518670e-02	4.43783720e-05	1.03107990e-06	1.54527060e-04	0.00000000e+00
13.57           	1.81496750e-01	4.39383600e-05	1.78140230e-06	1.31008660e-04	0.00000000e+00
13.575          	9.29215480e-02	4.34989000e-05	2.43717080e-06	1.82587920e-04	0.00000000e+00
13.58           	2.00801460e-01	4.30600270e-05	3.06048100e-06	2.43977550e-04	0.00000000e+00
13.585          	4.16706940e-01	4.26217690e-05	3.67204220e-06	1.67795530e-04	0.00000000e+00
13.59           	1.15967000e-01	4.21841420e-05	4.27876090e-06	1.84324310e-04	0.00000000e+00
13.595          	2.42324920e-01	4.17471540e-05	4.88293930e-06	1.54145890e-04	0.00000000e+00
13.6            	7.51959040e-02	4.13108130e-05	5.48534310e-06	1.60610690e-04	0.00000000e+00
13.605          	1.54815310e-01	4.08751240e-05	6.09142660e-06	2.23735870e-04	0.00000000e+00
13.61           	1.53022510e-01	4.04400900e-05	6.70036820e-06	2.01035830e-04	0.00000000e+00
13.615          	3.01326960e-01	4.00057210e-05	7.30787860e-06	1.60707700e-04	0.00000000e+00
13.62           	1.05366120e-01	3.95720130e-05	7.91396060e-06	1.77907430e-04	0.00000000e+00
13.625          	7.43688570e-02	3.91389670e-05	8.51861220e-06	1.13848840e-04	0.00000000e+00
13.63           	1.15061260e-01	3.87065960e-05	9.12183190e-06	1.58863160e-04	0.00000000e+00
13.635          	3.75759080e-01	3.82749060e-05	9.72361680e-06	1.17503100e-04	0.00000000e+00
13.64           	1.24103260e-01	3.78438890e-05	1.03239600e-05	1.29466190e-04	0.00000000e+00
13.645          	1.33478850e-01	3.74135580e-05	1.09228590e-05	1.78963230e-04	0.00000000e+00
13.65           	1.76619290e-01	3.69839150e-05	1.15203110e-05	1.77056780e-04	0.00000000e+00
13.655          	1.25650350e-01	3.65549640e-05	1.21163120e-05	1.60381990e-04	0.00000000e+00
13.66           	1.67827370e-01	3.61267080e-05	1.27108560e-05	1.56076690e-04	0.00000000e+00
13.665          	1.36065410e-01	3.56991520e-05	1.33039410e-05	1.75576680e-04	0.00000000e+00
13.67           	2.62547060e-01	3.52723030e-05	1.38955650e-05	1.31093590e-04	0.00000000e+00
13.675          	2.11147610e-01	3.48461570e-05	1.44857200e-05	1.65049060e-04	0.00000000e+00
13.68           	1.62440800e-01	3.44207220e-05	1.50744040e-05	1.71463930e-04	0.00000000e+00
13.685          	3.59606440e-01	3.39960000e-05	1.56646870e-05	2.16186250e-04	0.00000000e+00
13.69           	1.98084320e-01	3.35719960e-05	1.62538200e-05	2.26745780e-04	0.00000000e+00
13.695          	1.35475470e-01	3.31487100e-05	1.68414620e-05	2.50964790e-04	0.00000000e+00
13.7            	1.59544150e-01	3.27261560e-05	1.74276130e-05	2.34438490e-04	0.00000000e+00
13.705          	7.55945680e-02	3.23043300e-05	1.80122670e-05	1.71382780e-04	0.00000000e+00
13.71           	8.30939780e-02	3.18832350e-05	1.85954200e-05	1.82820140e-04	0.00000000e+00
13.715          	1.61760880e-01	3.14628730e-05	1.91770660e-05	2.09516460e-04	0.00000000e+00
13.72           	6.93595700e-02	3.10432540e-05	1.97572060e-05	2.02955170e-04	0.00000000e+00
13.725          	3.01996250e-01	3.06243790e-05	2.03358350e-05	2.13111130e-04	0.00000000e+00
13.73           	1.57322580e-01	3.02062520e-05	2.09129490e-05	1.99362880e-04	0.00000000e+00
13.735          	2.24236650e-01	2.97888750e-05	2.14885450e-05	2.75636150e-04	0.00000000e+00
13.74           	1.35158430e-01	2.93722530e-05	2.20626190e-05	2.05970450e-04	0.00000000e+00
13.745          	7.20371240e-02	2.89563890e-05	2.26351670e-05	2.50814410e-04	0.00000000e+00
13.75           	8.87892350e-02	2.85412860e-05	2.32061860e-05	2.17382030e-04	0.00000000e+00
13.755          	2.02635490e-01	2.81269470e-05	2.37756720e-05	2.21795910e-04	0.00000000e+00
13.76           	2.63171930e-01	2.77133810e-05	2.43436250e-05	2.41762950e-04	0.00000000e+00
13.765          	1.92055900e-01	2.73005800e-05	2.49100340e-05	3.06459610e-04	0.00000000e+00
13.77           	1.05312360e-01	2.68885600e-05	2.54749050e-05	2.71050110e-04	0.00000000e+00
13.775          	1.66889930e-01	2.64773160e-05	2.60382280e-05	2.53196170e-04	0.00000000e+00
13.78           	1.79786040e-01	2.60668510e-05	2.65999980e-05	2.49222690e-04	0.00000000e+00
13.785          	3.36048910e-01	2.56571730e-05	2.71602170e-05	2.54102300e-04	0.00000000e+00
13.79           	1.50785260e-01	2.52482840e-05	2.77188800e-05	1.93740320e-04	0.00000000e+00
13.795          	1.71467400e-01	2.48401870e-05	2.82759840e-05	2.43333810e-04	0.00000000e+00
13.8            	1.25011340e-01	2.44328860e-05	2.88315250e-05	1.77619310e-04	0.00000000e+00
13.805          	2.52379470e-01	2.40263840e-05	2.93855010e-05	1.93643350e-04	0.00000000e+00
13.81           	1.95229590e-01	2.36206860e-05	2.99379110e-05	2.13803570e-04	0.00000000e+00
13.815          	9.37338440e-02	2.32157880e-05	3.04887430e-05	1.95115280e-04	0.00000000e+00
13.82           	3.59408070e-01	2.28117030e-05	3.10380050e-05	1.85539240e-04	0.00000000e+00
13.825          	3.16085320e-01	2.24084260e-05	3.15856820e-05	1.94813380e-04	0.00000000e+00
13.83           	2.76542380e-01	2.20059640e-05	3.21317790e-05	1.54407480e-04	0.00000000e+00
13.835          	1.79905060e-01	2.16043240e-05	3.26762960e-05	1.68360610e-04	0.00000000e+00
13.84           	1.94126170e-01	2.12035000e-05	3.32192190e-05	1.98580960e-04	0.00000000e+00
13.845          	4.38700580e-01	2.08035030e-05	3.37605520e-05	1.70507960e-04	0.00000000e+00
13.85           	9.21035960e-02	2.04043350e-05	3.43002960e-05	1.84794250e-04	0.00000000e+00
13.855          	2.17735590e-01	2.00059940e-05	3.48384370e-05	1.84078010e-04	0.00000000e+00
13.86           	1.33412230e-01	1.96084900e-05	3.53749830e-05	1.74212590e-04	0.00000000e+00
13.865          	1.78001700e-01	1.92118210e-05	3.59099250e-05	1.99230860e-04	0.00000000e+00
13.87           	3.70990630e-01	1.88159920e-05	3.64432590e-05	1.48190170e-04	0.00000000e+00
13.875          	1.01138210e-01	1.84210030e-05	3.69749800e-05	1.35625890e-04	0.00000000e+00
13.88           	1.50680060e-01	1.80268640e-05	3.75050970e-05	1.21308650e-04	0.00000000e+00
13.885          	2.37963780e-01	1.76335700e-05	3.80335920e-05	1.68644900e-04	0.00000000e+00
13.89           	1.13480490e-01	1.72411310e-05	3.85604770e-05	1.16709590e-04	0.00000000e+00
13.895          	1.37464420e-01	1.68495440e-05	3.90857340e-05	1.30913970e-04	0.00000000e+00
13.9            	2.52581920e-01	1.64588150e-05	3.96093700e-05	1.67536970e-04	0.00000000e+00
13.905          	1.09190330e-01	1.60689470e-05	4.01313810e-05	1.04761830e-04	0.00000000e+00
13.91           	1.48249720e-01	1.56799430e-05	4.06517640e-05	1.41284510e-04	0.00000000e+00
13.915          	3.73225830e-01	1.52918050e-05	4.11705150e-05	1.71694750e-04	0.00000000e+00
13.92           	5.20077130e-01	1.49045380e-05	4.16876370e-05	1.74753950e-04	0.00000000e+00
13.925          	8.98830100e-02	1.45181400e-05	4.22031140e-05	1.73108060e-04	0.00000000e+00
13.93           	1.34341880e-01	1.41326180e-05	4.27169530e-05	1.55490050e-04	0.00000000e+00
13.935          	2.47493620e-01	1.37479740e-05	4.32291510e-05	1.77744520e-04	0.00000000e+00
13.94           	2.73381650e-01	1.33642120e-05	4.37397090e-05	1.68442020e-04	0.00000000e+00
13.945          	1.20026790e-01	1.29813310e-05	4.42486160e-05	1.55910980e-04	0.00000000e+00
13.95           	1.60086530e-01	1.25993360e-05	4.47558670e-05	2.46708870e-04	0.00000000e+00
13.955          	1.45839350e-01	1.22182290e-05	4.52614680e-05	2.03361630e-04	0.00000000e+00
13.96           	4.45410920e-01	1.18380150e-05	4.57654140e-05	1.83390370e-04	0.00000000e+00
13.965          	1.74696280e-01	1.14586950e-05	4.62677090e-05	1.69513340e-04	0.00000000e+00
13.97           	4.09910200e-02	1.10802720e-05	4.67683400e-05	1.93937860e-04	0.00000000e+00
13.975          	1.29290550e-01	1.07027470e-05	4.72673010e-05	1.87537190e-04	0.00000000e+00
13.98           	3.10281870e-01	1.03261240e-05	4.77646000e-05	1.99941080e-04	0.00000000e+00
13.985          	2.00542450e-01	9.95040690e-06	4.82602330e-05	1.85633300e-04	0.00000000e+00
13.99           	1.92275880e-01	9.57559670e-06	4.87541960e-05	2.20957060e-04	0.00000000e+00
13.995          	1.16805290e-01	9.20169640e-06	4.92464860e-05	2.35046380e-04	0.00000000e+00
14              	1.41082920e-01	8.82870860e-06	4.97371010e-05	1.70511840e-04	0.00000000e+00
14.005          	1.44899450e-01	8.45663650e-06	5.02260460e-05	1.90370810e-04	0.00000000e+00
14.01           	3.23771410e-01	8.08548060e-06	5.07133000e-05	1.58648800e-04	0.00000000e+00
14.015          	1.93296490e-01	7.71524580e-06	5.11988810e-05	2.25346290e-04	0.00000000e+00
14.02           	7.96759740e-02	7.34593250e-06	5.16827680e-05	1.71343170e-04	0.00000000e+00
14.025          	2.92687340e-01	6.97754510e-06	5.21649790e-05	1.64304530e-04	0.00000000e+00
14.03           	1.33005830e-01	6.61008490e-06	5.26454970e-05	1.76084710e-04	0.00000000e+00
14.035          	1.09464690e-01	6.24355440e-06	5.31243240e-05	1.21852270e-04	0.00000000e+00
14.04           	2.44556520e-01	5.87810450e-06	5.36014500e-05	1.93717530e-04	0.00000000e+00
14.045          	1.30187780e-01	5.51541050e-06	5.40768840e-05	1.84829670e-04	0.00000000e+00
14.05           	8.55159730e-02	5.15659440e-06	5.45506230e-05	1.58766580e-04	0.00000000e+00
14.055          	1.58288610e-01	4.80477450e-06	5.50226690e-05	2.04308600e-04	0.00000000e+00
14.06           	7.60029030e-02	4.46803320e-06	5.54930030e-05	1.58848790e-04	0.00000000e+00
14.065          	7.34060130e-02	4.15048010e-06	5.59616350e-05	1.73528640e-04	0.00000000e+00
14.07           	8.63733930e-02	3.85238440e-06	5.64285620e-05	1.60178370e-04	0.00000000e+00
14.075          	2.14752190e-01	3.57889620e-06	5.68937890e-05	1.76630820e-04	0.00000000e+00
14.08           	6.30254600e-02	3.32867640e-06	5.73573010e-05	1.39320440e-04	0.00000000e+00
14.085          	1.85478360e-01	3.10199990e-06	5.78190920e-05	1.71173150e-04	0.00000000e+00
14.09           	9.84874800e-02	2.90340070e-06	5.82791730e-05	1.07841530e-04	0.00000000e+00
14.095          	1.01855270e-01	2.73104150e-06	5.87375400e-05	1.12599510e-04	0.00000000e+00
14.1            	7.82619480e-02	2.58494840e-06	5.91941960e-05	1.15657370e-04	0.00000000e+00
14.105          	1.11739890e-01	2.46561970e-06	5.96491270e-05	9.99957360e-05	0.00000000e+00
14.11           	6.85715300e-02	2.37346150e-06	6.01023280e-05	7.09763320e-05	0.00000000e+00
14.115          	1.31858660e-01	2.31236410e-06	6.05538170e-05	9.63194650e-05	0.00000000e+00
14.12           	8.01318950e-02	2.27906750e-06	6.10035760e-05	6.96781630e-05	0.00000000e+00
14.125          	1.43463240e-01	2.27355370e-06	6.14516070e-05	8.78323920e-05	0.00000000e+00
14.13           	1.73710770e-01	2.29583000e-06	6.18979080e-05	9.04971110e-05	0.00000000e+00
14.135          	7.52797040e-02	2.34580400e-06	6.23424780e-05	9.89339100e-05	0.00000000e+00
14.14           	1.98420810e-01	2.42523460e-06	6.27853150e-05	7.91202340e-05	0.00000000e+00
14.145          	1.33783830e-01	2.53360530e-06	6.32264170e-05	8.94317990e-05	0.00000000e+00
14.15           	8.64352300e-02	2.66879890e-06	6.36657830e-05	9.30147520e-05	0.00000000e+00
14.155          	1.34563300e-01	2.83023720e-06	6.41034110e-05	8.19127720e-05	0.00000000e+00
14.16           	1.66595100e-01	3.01732600e-06	6.45392910e-05	7.60836410e-05	0.00000000e+00
14.165          	1.41560180e-01	3.22936060e-06	6.49734430e-05	1.25408850e-04	0.00000000e+00
14.17           	1.94839440e-01	3.46767100e-06	6.54058400e-05	1.65178570e-04	0.00000000e+00
14.175          	1.36069330e-01	3.72933670e-06	6.58365040e-05	1.28529430e-04	0.00000000e+00
14.18           	1.35511570e-01	4.01208300e-06	6.62654190e-05	8.72809860e-05	0.00000000e+00
14.185          	2.16716160e-01	4.32544950e-06	6.66925750e-05	1.00436600e-04	0.00000000e+00
14.19           	4.62651530e-01	4.64520690e-06	6.71179960e-05	8.14659330e-05	0.00000000e+00
14.195          	1.78473410e-01	4.98080210e-06	6.75416610e-05	1.37311490e-04	0.00000000e+00
14.2            	1.30041590e-01	5.31539610e-06	6.79635640e-05	7.15714500e-05	0.00000000e+00
14.205          	5.09573610e-01	5.64898850e-06	6.83837180e-05	8.80195880e-05	0.00000000e+00
14.21           	2.68361500e-01	5.98157810e-06	6.88021270e-05	7.18698110e-05	0.00000000e+00
14.215          	1.63208700e-01	6.31316150e-06	6.92187740e-05	7.78874020e-05	0.00000000e+00
14.22           	7.38298640e-02	6.64373630e-06	6.96336520e-05	1.09562900e-04	0.00000000e+00
14.225          	1.28972040e-01	6.97330340e-06	7.00467830e-05	7.70775810e-05	0.00000000e+00
14.23           	6.68953320e-02	7.30185910e-06	7.04581500e-05	1.19861850e-04	0.00000000e+00
14.235          	2.59283590e-01	7.62940200e-06	7.08677520e-05	1.33347720e-04	0.00000000e+00
14.24           	1.01709220e-01	7.95593040e-06	7.12755900e-05	1.06296720e-04	0.00000000e+00
14.245          	1.86426880e-01	8.28144150e-06	7.16816530e-05	6.15345050e-05	0.00000000e+00
14.25           	6.50347640e-02	8.60593560e-06	7.20859560e-05	1.45775830e-04	0.00000000e+00
14.255          	3.12058490e-02	8.92941180e-06	7.24885010e-05	1.23213710e-04	0.00000000e+00
14.26           	1.85681850e-01	9.25186490e-06	7.28892630e-05	1.66819780e-04	0.00000000e+00
14.265          	9.71857230e-02	9.57329590e-06	7.32882580e-05	1.34559830e-04	0.00000000e+00
14.27           	7.17376490e-02	9.89370280e-06	7.36854830e-05	1.21232480e-04	0.00000000e+00
14.275          	2.29848270e-01	1.02130850e-05	7.40809450e-05	1.43583670e-04	0.00000000e+00
14.28           	6.12037630e-02	1.05314390e-05	7.44746260e-05	1.37078770e-04	0.00000000e+00
14.285          	1.13933700e-01	1.08487640e-05	7.48665310e-05	1.20162230e-04	0.00000000e+00
14.29           	1.51423720e-01	1.11650580e-05	7.52566580e-05	1.73789830e-04	0.00000000e+00
14.295          	1.01725350e-01	1.14803190e-05	7.56449980e-05	1.65532810e-04	0.00000000e+00
14.3            	9.56336060e-02	1.17945470e-05	7.60315650e-05	1.39329440e-04	0.00000000e+00
14.305          	2.30553560e-01	1.21077400e-05	7.64163550e-05	1.65706670e-04	0.00000000e+00
14.31           	3.88581950e-01	1.24198970e-05	7.67993640e-05	1.74655950e-04	0.00000000e+00
14.315          	8.03120250e-02	1.27310170e-05	7.71806010e-05	1.76839890e-04	0.00000000e+00
14.32           	1.28476730e-01	1.30410970e-05	7.75600490e-05	2.22489960e-04	0.00000000e+00
14.325          	2.13862910e-01	1.33501360e-05	7.79377110e-05	2.74569300e-04	0.00000000e+00
14.33           	1.42489740e-01	1.36581310e-05	7.83135770e-05	2.20503650e-04	0.00000000e+00
14.335          	1.08868950e-01	1.39650830e-05	7.86876640e-05	2.79476270e-04	0.00000000e+00
14.34           	2.38117580e-01	1.42709910e-05	7.90599660e-05	1.95024860e-04	0.00000000e+00
14.345          	4.69185920e-01	1.45758520e-05	7.94304810e-05	2.28251720e-04	0.00000000e+00
14.35           	2.33382080e-01	1.48796680e-05	7.97992170e-05	3.06094540e-04	0.00000000e+00
14.355          	1.81731140e-01	1.51824310e-05	8.01661480e-05	2.03273920e-04	0.00000000e+00
14.36           	1.21487790e-01	1.54841470e-05	8.05313020e-05	2.42338220e-04	0.00000000e+00
14.365          	1.50793200e-01	1.57848080e-05	8.08946510e-05	2.11232780e-04	0.00000000e+00
14.37           	1.47388940e-01	1.60844200e-05	8.12562210e-05	2.22327230e-04	0.00000000e+00
14.375          	3.50166240e-01	1.63829740e-05	8.16159840e-05	1.87661990e-04	0.00000000e+00
14.38           	1.39182450e-01	1.66804740e-05	8.19739590e-05	2.01904170e-04	0.00000000e+00
14.385          	1.23938290e-01	1.69769180e-05	8.23301410e-05	1.92988760e-04	0.00000000e+00
14.39           	1.19412130e-01	1.72723060e-05	8.26845380e-05	2.32654090e-04	0.00000000e+00
14.395          	1.16221980e-01	1.75666340e-05	8.30371320e-05	1.82003080e-04	0.00000000e+00
14.4            	1.22509370e-01	1.78599010e-05	8.33879280e-05	1.89315480e-04	0.00000000e+00
14.405          	3.91268880e-01	1.81521070e-05	8.37369270e-05	1.94696320e-04	0.00000000e+00
14.41           	1.04469140e-01	1.84432490e-05	8.40841160e-05	1.86148840e-04	0.00000000e+00
14.415          	3.10095520e-01	1.87333300e-05	8.44295250e-05	1.60458040e-04	0.00000000e+00
14.42           	1.81142990e-01	1.90223460e-05	8.47731290e-05	2.52078700e-04	0.00000000e+00
14.425          	2.12742750e-01	1.93102930e-05	8.51149220e-05	2.04412570e-04	0.00000000e+00
14.43           	9.14822090e-02	1.95971750e-05	8.54549210e-05	1.63618500e-04	0.00000000e+00
14.435          	1.45358030e-01	1.98829920e-05	8.57931320e-05	1.66320220e-04	0.00000000e+00
14.44           	2.13661830e-01	2.01677360e-05	8.61295250e-05	2.07189610e-04	0.00000000e+00
14.445          	5.46695380e-02	2.04514140e-05	8.64641310e-05	1.73281080e-04	0.00000000e+00
14.45           	1.12856440e-01	2.07340170e-05	8.67969190e-05	1.56708730e-04	0.00000000e+00
14.455          	1.90729410e-01	2.10155500e-05	8.71279090e-05	1.40796780e-04	0.00000000e+00
14.46           	1.59651770e-01	2.12960130e-05	8.74571090e-05	1.44325700e-04	0.00000000e+00
14.465          	1.55276620e-01	2.15754000e-05	8.77844980e-05	1.39495380e-04	0.00000000e+00
14.47           	3.96575900e-01	2.18537120e-05	8.81100810e-05	1.75308620e-04	0.00000000e+00
14.475          	4.28702050e-02	2.21309480e-05	8.84338590e-05	1.05149000e-04	0.00000000e+00
14.48           	1.07406750e-01	2.24071040e-05	8.87558210e-05	1.56066550e-04	0.00000000e+00
14.485          	1.23868950e-01	2.26821850e-05	8.90759840e-05	1.35352110e-04	0.00000000e+00
14.49           	8.07040410e-02	2.29561910e-05	8.93943560e-05	1.00730240e-04	0.00000000e+00
14.495          	1.84229700e-01	2.32291130e-05	8.97109040e-05	1.37905320e-04	0.00000000e+00
14.5            	9.89728120e-02	2.35009560e-05	9.00256510e-05	2.01414950e-04	0.00000000e+00
14.505          	3.45882300e-01	2.37717190e-05	9.03385930e-05	1.29382490e-04	0.00000000e+00
14.51           	2.12728820e-01	2.40414000e-05	9.06497290e-05	1.44542080e-04	0.00000000e+00
14.515          	1.20306600e-01	2.43099980e-05	9.09590590e-05	1.37560950e-04	0.00000000e+00
14.52           	1.05899650e-01	2.45775140e-05	9.12665810e-05	1.27609090e-04	0.00000000e+00
14.525          	1.43850760e-01	2.48439450e-05	9.15722970e-05	2.01213040e-04	0.00000000e+00
14.53           	5.06733110e-02	2.51092940e-05	9.18762150e-05	1.54870020e-04	0.00000000e+00
14.535          	1.02633990e-01	2.53735560e-05	9.21783190e-05	1.26422420e-04	0.00000000e+00
14.54           	9.44220050e-02	2.56367270e-05	9.24786020e-05	9.51606390e-05	0.00000000e+00
14.545          	1.19539350e-01	2.58988130e-05	9.27770830e-05	1.18414180e-04	0.00000000e+00
14.55           	8.87539150e-02	2.61598160e-05	9.30737690e-05	1.43190280e-04	0.00000000e+00
14.555          	1.29324240e-01	2.64197280e-05	9.33686410e-05	1.04329940e-04	0.00000000e+00
14.56           	3.02722420e-01	2.66785500e-05	9.36617030e-05	9.05177720e-05	0.00000000e+00
14.565          	1.10009650e-01	2.69362790e-05	9.39529440e-05	9.31768500e-05	0.00000000e+00
14.57           	9.37411140e-02	2.71929200e-05	9.42423850e-05	6.53081480e-05	0.00000000e+00
14.575          	2.77936180e-01	2.74484700e-05	9.45300200e-05	6.26534190e-05	0.00000000e+00
14.58           	1.45598390e-01	2.77029330e-05	9.48158590e-05	5.98476310e-05	0.00000000e+00
14.585          	1.73462720e-01	2.79562980e-05	9.50998710e-05	4.97786020e-05	0.00000000e+00
14.59           	1.73152790e-01	2.82085720e-05	9.53820810e-05	7.47655520e-05	0.00000000e+00
14.595          	1.18824530e-01	2.84597530e-05	9.56624850e-05	8.00878710e-05	0.00000000e+00
14.6            	1.60943500e-01	2.87098430e-05	9.59410920e-05	7.79296580e-05	0.00000000e+00
14.605          	2.07007590e-01	2.89588340e-05	9.62178740e-05	8.04244210e-05	0.00000000e+00
14.61           	1.25072280e-01	2.92067310e-05	9.64928520e-05	1.01176640e-04	0.00000000e+00
14.615          	1.30810060e-01	2.94535380e-05	9.67660370e-05	1.01847510e-04	0.00000000e+00
14.62           	1.36956300e-01	2.96992420e-05	9.70373960e-05	6.19896520e-05	0.00000000e+00
14.625          	2.99298590e-01	2.99438520e-05	9.73069540e-05	6.77692660e-05	0.00000000e+00
14.63           	9.46389510e-02	3.01873690e-05	9.75747180e-05	6.63935750e-05	0.00000000e+00
14.635          	1.06918280e-01	3.04297870e-05	9.78406690e-05	1.18104550e-04	0.00000000e+00
14.64           	3.71906940e-01	3.06711070e-05	9.81048110e-05	6.29069850e-05	0.00000000e+00
14.645          	2.10960400e-01	3.09113250e-05	9.83671350e-05	7.17564200e-05	0.00000000e+00
14.65           	4.82216850e-01	3.11504460e-05	9.86276610e-05	8.89360100e-05	0.00000000e+00
14.655          	2.21829910e-01	3.13884740e-05	9.88863960e-05	1.13856490e-04	0.00000000e+00
14.66           	2.40712190e-01	3.16254000e-05	9.91433190e-05	9.26337800e-05	0.00000000e+00
14.665          	1.25203100e-01	3.18612220e-05	9.93984230e-05	8.07358800e-05	0.00000000e+00
14.67           	1.10715040e-01	3.20959470e-05	9.96517300e-05	1.22625940e-04	0.00000000e+00
14.675          	1.14511690e-01	3.23295720e-05	9.99032360e-05	1.14912960e-04	0.00000000e+00
14.68           	1.04592250e-01	3.25620980e-05	1.00152940e-04	1.22587210e-04	0.00000000e+00
14.685          	1.04715310e-01	3.27935220e-05	1.00400840e-04	1.23758170e-04	0.00000000e+00
14.69           	2.08539040e-01	3.30238500e-05	1.00646950e-04	8.33417550e-05	0.00000000e+00
14.695          	1.27771190e-01	3.32530700e-05	1.00891240e-04	7.85994600e-05	0.00000000e+00
14.7            	1.22854440e-01	3.34811940e-05	1.01133740e-04	1.11210920e-04	0.00000000e+00
14.705          	6.36394320e-02	3.37082100e-05	1.01374430e-04	1.43094300e-04	0.00000000e+00
14.71           	1.07534920e-01	3.39341310e-05	1.01613330e-04	8.70698380e-05	0.00000000e+00
14.715          	1.32491100e-01	3.41589470e-05	1.01850430e-04	1.19472920e-04	0.00000000e+00
14.72           	8.89453800e-02	3.43826560e-05	1.02085710e-04	1.12813590e-04	0.00000000e+00
14.725          	1.47492020e-01	3.46052700e-05	1.02319220e-04	9.36277310e-05	0.00000000e+00
14.73           	1.72736540e-01	3.48267750e-05	1.02550910e-04	1.33110310e-04	0.00000000e+00
14.735          	2.61130600e-01	3.50471830e-05	1.02780820e-04	1.21174880e-04	0.00000000e+00
14.74           	1.04762000e-01	3.52664820e-05	1.03008910e-04	1.13445990e-04	0.00000000e+00
14.745          	1.45521730e-01	3.54846810e-05	1.03235220e-04	8.28929930e-05	0.00000000e+00
14.75           	1.94458750e-01	3.57017810e-05	1.03459740e-04	8.29112240e-05	0.00000000e+00
14.755          	2.50248170e-01	3.59177710e-05	1.03682450e-04	1.26936260e-04	0.00000000e+00
14.76           	5.45519620e-02	3.61326600e-05	1.03903370e-04	1.09410300e-04	0.00000000e+00
14.765          	1.43459210e-01	3.63464460e-05	1.04122500e-04	1.04202780e-04	0.00000000e+00
14.77           	1.82687400e-01	3.65591300e-05	1.04339840e-04	8.56477240e-05	0.00000000e+00
14.775          	1.01239380e-01	3.67707140e-05	1.04555400e-04	6.58853280e-05	0.00000000e+00
14.78           	1.25701890e-01	3.69811870e-05	1.04769150e-04	8.22196540e-05	0.00000000e+00
14.785          	1.43622220e-01	3.71905640e-05	1.04981120e-04	5.23771520e-05	0.00000000e+00
14.79           	9.30632790e-02	3.73988350e-05	1.05191300e-04	8.53685600e-05	0.00000000e+00
14.795          	1.81151330e-01	3.76059970e-05	1.05399680e-04	9.07698970e-05	0.00000000e+00
14.8            	2.27180780e-01	3.78120630e-05	1.05606290e-04	1.08454470e-04	0.00000000e+00
14.805          	5.82731450e-02	3.80170200e-05	1.05811090e-04	1.12953120e-04	0.00000000e+00
14.81           	1.55493760e-01	3.82208750e-05	1.06014120e-04	8.09645670e-05	0.00000000e+00
14.815          	7.47102140e-02	3.84236280e-05	1.06215360e-04	1.20258510e-04	0.00000000e+00
14.82           	1.07244330e-01	3.86252780e-05	1.06414820e-04	1.08019760e-04	0.00000000e+00
14.825          	1.01869190e-01	3.88258260e-05	1.06612500e-04	1.18505940e-04	0.00000000e+00
14.83           	1.21752390e-01	3.90252750e-05	1.06808410e-04	1.13129410e-04	0.00000000e+00
14.835          	1.13330350e-01	3.92236140e-05	1.07002520e-04	1.08713120e-04	0.00000000e+00
14.84           	1.97567240e-01	3.94208580e-05	1.07194860e-04	1.19414270e-04	0.00000000e+00
14.845          	2.09844870e-01	3.96169960e-05	1.07385420e-04	1.17803080e-04	0.00000000e+00
14.85           	9.88110150e-02	3.98120270e-05	1.07574190e-04	1.39297670e-04	0.00000000e+00
14.855          	1.60746740e-01	4.00059590e-05	1.07761190e-04	1.26476490e-04	0.00000000e+00
14.86           	2.49692910e-01	4.01987900e-05	1.07946420e-04	1.02184620e-04	0.00000000e+00
14.865          	1.60198470e-01	4.03905190e-05	1.08129870e-04	1.17752960e-04	0.00000000e+00
14.87           	1.06728210e-01	4.05811520e-05	1.08311570e-04	1.28107920e-04	0.00000000e+00
14.875          	1.95637040e-01	4.07706810e-05	1.08491480e-04	9.65152070e-05	0.00000000e+00
14.88           	1.83507200e-01	4.09591040e-05	1.08669610e-04	9.65286650e-05	0.00000000e+00
14.885          	2.78127020e-01	4.11464280e-05	1.08845970e-04	1.26869200e-04	0.00000000e+00
14.89           	3.91328940e-01	4.13326590e-05	1.09020580e-04	8.21156120e-05	0.00000000e+00
14.895          	1.37258940e-01	4.15177810e-05	1.09193410e-04	9.72470790e-05	0.00000000e+00
14.9            	1.05180500e-01	4.17018110e-05	1.09364480e-04	8.72269330e-05	0.00000000e+00
14.905          	2.29734120e-01	4.18847390e-05	1.09533790e-04	5.94971090e-05	0.00000000e+00
14.91           	3.11491260e-01	4.20665620e-05	1.09701320e-04	8.52982330e-05	0.00000000e+00
14.915          	3.01571670e-01	4.22472900e-05	1.09867090e-04	6.11520030e-05	0.00000000e+00
14.92           	1.11923430e-01	4.24269200e-05	1.10031100e-04	8.06216100e-05	0.00000000e+00
14.925          	1.06384850e-01	4.26054580e-05	1.10193370e-04	7.27508350e-05	0.00000000e+00
14.93           	1.08180330e-01	4.27828940e-05	1.10353880e-04	6.04670430e-05	0.00000000e+00
14.935          	2.87448520e-01	4.29592330e-05	1.10512620e-04	5.22520620e-05	0.00000000e+00
14.94           	2.80082390e-01	4.31344700e-05	1.10669600e-04	7.33814480e-05	0.00000000e+00
14.945          	2.34545360e-01	4.33086180e-05	1.10824840e-04	1.10646960e-04	0.00000000e+00
14.95           	1.35563290e-01	4.34816630e-05	1.10978310e-04	9.99290190e-05	0.00000000e+00
14.955          	7.44091890e-02	4.36536160e-05	1.11130040e-04	9.04402990e-05	0.00000000e+00
14.96           	1.48927590e-01	4.38244790e-05	1.11280030e-04	1.00402440e-04	0.00000000e+00
14.965          	1.61669400e-01	4.39942400e-05	1.11428260e-04	8.48839250e-05	0.00000000e+00
14.97           	1.36450870e-01	4.41629140e-05	1.11574750e-04	1.06385500e-04	0.00000000e+00
14.975          	1.03406170e-01	4.43304870e-05	1.11719480e-04	1.29662220e-04	0.00000000e+00
14.98           	7.02107470e-02	4.44969750e-05	1.11862490e-04	1.38763520e-04	0.00000000e+00
14.985          	2.08427970e-01	4.46623670e-05	1.12003750e-04	1.14166930e-04	0.00000000e+00
14.99           	9.07094640e-02	4.48266670e-05	1.12143270e-04	1.49642620e-04	0.00000000e+00
14.995          	2.28451890e-01	4.49898750e-05	1.12281050e-04	2.17127980e-04	0.00000000e+00
15              	9.75733350e-02	4.51519870e-05	1.12417080e-04	1.32736700e-04	0.00000000e+00
15.005          	2.01741160e-01	4.53130120e-05	1.12551380e-04	1.06544300e-04	0.00000000e+00
15.01           	2.18931010e-01	4.54729540e-05	1.12683960e-04	9.71370020e-05	0.00000000e+00
15.015          	2.11230970e-01	4.56317990e-05	1.12814790e-04	1.20581300e-04	0.00000000e+00
15.02           	4.56386000e-01	4.57895620e-05	1.12943910e-04	9.65507640e-05	0.00000000e+00
15.025          	3.01638530e-01	4.59462350e-05	1.13071300e-04	8.02615630e-05	0.00000000e+00
15.03           	1.65242890e-01	4.61018150e-05	1.13196940e-04	1.09803520e-04	0.00000000e+00
15.035          	3.46650750e-01	4.62563120e-05	1.13320860e-04	1.25976250e-04	0.00000000e+00
15.04           	1.87395940e-01	4.64097230e-05	1.13443060e-04	7.50630300e-05	0.00000000e+00
15.045          	2.03547250e-01	4.65620500e-05	1.13563550e-04	9.89277220e-05	0.00000000e+00
15.05           	7.29555550e-02	4.67132980e-05	1.13682320e-04	1.16091340e-04	0.00000000e+00
15.055          	7.84382640e-02	4.68634530e-05	1.13799360e-04	1.29831640e-04	0.00000000e+00
15.06           	1.66394110e-01	4.70125320e-05	1.13914700e-04	1.42231260e-04	0.00000000e+00
15.065          	2.44058110e-01	4.71605210e-05	1.14028300e-04	1.15791550e-04	0.00000000e+00
15.07           	1.49972320e-01	4.73074310e-05	1.14140200e-04	1.29902110e-04	0.00000000e+00
15.075          	1.09232840e-01	4.74532670e-05	1.14250410e-04	1.49509800e-04	0.00000000e+00
15.08           	1.36261340e-01	4.75980190e-05	1.14358890e-04	1.42142500e-04	0.00000000e+00
15.085          	1.07616570e-01	4.77416840e-05	1.14465650e-04	1.73306710e-04	0.00000000e+00
15.09           	7.27725560e-02	4.78842750e-05	1.14570720e-04	1.16725510e-04	0.00000000e+00
15.095          	5.61005780e-02	4.80257880e-05	1.14674090e-04	1.94641670e-04	0.00000000e+00
15.1            	1.50164440e-01	4.81662310e-05	1.14775770e-04	1.58024820e-04	0.00000000e+00
15.105          	1.80769390e-01	4.83055880e-05	1.14875720e-04	1.43920440e-04	0.00000000e+00
15.11           	8.47013490e-02	4.84438720e-05	1.14973990e-04	1.59481420e-04	0.00000000e+00
15.115          	2.45006380e-01	4.85810880e-05	1.15070580e-04	1.64203540e-04	0.00000000e+00
15.12           	1.12072560e-01	4.87172210e-05	1.15165450e-04	1.56815320e-04	0.00000000e+00
15.125          	1.72343410e-01	4.88522840e-05	1.15258640e-04	1.68520760e-04	0.00000000e+00
15.13           	3.91457470e-01	4.89862760e-05	1.15350140e-04	1.67876370e-04	0.00000000e+00
15.135          	1.93021900e-01	4.91192020e-05	1.15439960e-04	1.70319500e-04	0.00000000e+00
15.14           	1.02757480e-01	4.92510550e-05	1.15528100e-04	1.66014970e-04	0.00000000e+00
15.145          	7.02601400e-02	4.93818310e-05	1.15614530e-04	1.93570640e-04	0.00000000e+00
15.15           	1.06440720e-01	4.95115430e-05	1.15699300e-04	1.69829550e-04	0.00000000e+00
15.155          	1.01852340e-01	4.96401870e-05	1.15782380e-04	2.18335870e-04	0.00000000e+00
15.16           	1.01862930e-01	4.97677660e-05	1.15863790e-04	1.22977290e-04	0.00000000e+00
15.165          	9.98846130e-02	4.98942790e-05	1.15943530e-04	1.34295170e-04	0.00000000e+00
15.17           	1.24380980e-01	5.00197330e-05	1.16021610e-04	1.44005980e-04	0.00000000e+00
15.175          	1.15081630e-01	5.01441200e-05	1.16098010e-04	1.51348010e-04	0.00000000e+00
15.18           	5.29776160e-02	5.02674430e-05	1.16172740e-04	1.75497340e-04	0.00000000e+00
15.185          	1.51241210e-01	5.03897030e-05	1.16245800e-04	2.38711550e-04	0.00000000e+00
15.19           	2.84209060e-01	5.05108970e-05	1.16317190e-04	2.18518590e-04	0.00000000e+00
15.195          	2.25601320e-01	5.06310410e-05	1.16386940e-04	1.74410810e-04	0.00000000e+00
15.2            	3.44506330e-01	5.07501230e-05	1.16455020e-04	1.67395790e-04	0.00000000e+00
15.205          	1.17972160e-01	5.08681470e-05	1.16521440e-04	1.58037100e-04	0.00000000e+00
15.21           	3.59535250e-01	5.09851080e-05	1.16586200e-04	1.08224500e-04	0.00000000e+00
15.215          	3.23839630e-01	5.11010230e-05	1.16649330e-04	1.01961030e-04	0.00000000e+00
15.22           	1.20202350e-01	5.12158750e-05	1.16710790e-04	1.25953450e-04	0.00000000e+00
15.225          	1.85778370e-01	5.13296770e-05	1.16770610e-04	1.05936380e-04	0.00000000e+00
15.23           	4.37543180e-01	5.14424330e-05	1.16828800e-04	1.11734840e-04	0.00000000e+00
15.235          	1.26774230e-01	5.15541350e-05	1.16885340e-04	7.98069290e-05	0.00000000e+00
15.24           	1.03082770e-01	5.16647790e-05	1.16940230e-04	6.00074620e-05	0.00000000e+00
15.245          	1.61545020e-01	5.17743840e-05	1.16993500e-04	5.91621380e-05	0.00000000e+00
15.25           	3.86507820e-01	5.18829320e-05	1.17045110e-04	9.47018840e-05	0.00000000e+00
15.255          	1.12376970e-01	5.19904360e-05	1.17095100e-04	5.85466980e-05	0.00000000e+00
15.26           	1.16571370e-01	5.20969020e-05	1.17143480e-04	4.73247690e-05	0.00000000e+00
15.265          	1.47817420e-01	5.22023130e-05	1.17190200e-04	6.76366440e-05	0.00000000e+00
15.27           	1.16083070e-01	5.23066850e-05	1.17235310e-04	1.15901560e-04	0.00000000e+00
15.275          	9.61732960e-02	5.24100200e-05	1.17278810e-04	6.63951870e-05	0.00000000e+00
15.28           	7.62984910e-02	5.25123060e-05	1.17320670e-04	9.41224740e-05	0.00000000e+00
15.285          	1.77901450e-01	5.26135540e-05	1.17360920e-04	7.08570010e-05	0.00000000e+00
15.29           	2.00500780e-01	5.27137710e-05	1.17399580e-04	6.01098840e-05	0.00000000e+00
15.295          	4.37694180e-01	5.28129410e-05	1.17436590e-04	5.64346030e-05	0.00000000e+00
15.3            	8.77787970e-02	5.29110770e-05	1.17472010e-04	6.32857750e-05	0.00000000e+00
15.305          	9.48651750e-02	5.30081860e-05	1.17505830e-04	9.38913170e-05	0.00000000e+00
15.31           	3.08588990e-01	5.31042510e-05	1.17538030e-04	5.55502910e-05	0.00000000e+00
15.315          	2.07529120e-01	5.31992870e-05	1.17568630e-04	3.68362780e-05	0.00000000e+00
15.32           	1.33001710e-01	5.32932990e-05	1.17597650e-04	7.55337680e-05	0.00000000e+00
15.325          	1.09577200e-01	5.33862710e-05	1.17625050e-04	3.99079900e-05	0.00000000e+00
15.33           	2.97709380e-01	5.34782180e-05	1.17650860e-04	1.03812080e-04	0.00000000e+00
15.335          	1.60981840e-01	5.35691380e-05	1.17675090e-04	7.52678120e-05	0.00000000e+00
15.34           	2.66044170e-01	5.36590330e-05	1.17697720e-04	6.97290800e-05	0.00000000e+00
15.345          	4.00719900e-01	5.37479030e-05	1.17718780e-04	7.79878700e-05	0.00000000e+00
15.35           	1.43784270e-01	5.38357570e-05	1.17738260e-04	7.03058780e-05	0.00000000e+00
15.355          	3.21037830e-01	5.39225840e-05	1.17756160e-04	1.68011740e-04	0.00000000e+00
15.36           	2.06217500e-01	5.40083900e-05	1.17772470e-04	8.13580020e-05	0.00000000e+00
15.365          	1.02507020e-01	5.40931760e-05	1.17787210e-04	6.79246530e-05	0.00000000e+00
15.37           	1.18392930e-01	5.41769430e-05	1.17800380e-04	1.00020180e-04	0.00000000e+00
15.375          	1.65610260e-01	5.42596950e-05	1.17811980e-04	7.57116880e-05	0.00000000e+00
15.38           	1.16629220e-01	5.43414250e-05	1.17822000e-04	1.02286490e-04	0.00000000e+00
15.385          	2.08765110e-01	5.44221460e-05	1.17830470e-04	7.60190580e-05	0.00000000e+00
15.39           	2.81529600e-01	5.45018560e-05	1.17837380e-04	9.86218000e-05	0.00000000e+00
15.395          	1.67868280e-01	5.45805550e-05	1.17842740e-04	8.85956770e-05	0.00000000e+00
15.4            	1.25327710e-01	5.46582450e-05	1.17846540e-04	1.00937270e-04	0.00000000e+00
15.405          	1.54027610e-01	5.47349280e-05	1.17848790e-04	1.51726680e-04	0.00000000e+00
15.41           	1.14563800e-01	5.48106030e-05	1.17849490e-04	6.86124560e-05	0.00000000e+00
15.415          	6.10243050e-02	5.48852740e-05	1.17848650e-04	8.31071130e-05	0.00000000e+00
15.42           	7.20672330e-02	5.49589410e-05	1.17846260e-04	1.10713280e-04	0.00000000e+00
15.425          	1.32441650e-01	5.50316060e-05	1.17842340e-04	9.51054310e-05	0.00000000e+00
15.43           	1.93457040e-01	5.51032760e-05	1.17836890e-04	9.92443900e-05	0.00000000e+00
15.435          	9.28712010e-02	5.51739370e-05	1.17829890e-04	8.53835320e-05	0.00000000e+00
15.44           	1.69535370e-01	5.52436090e-05	1.17821380e-04	9.49005290e-05	0.00000000e+00
15.445          	1.16341090e-01	5.53122760e-05	1.17811310e-04	1.02033670e-04	0.00000000e+00
15.45           	2.81172760e-01	5.53799570e-05	1.17799750e-04	8.25946970e-05	0.00000000e+00
15.455          	5.33221970e-02	5.54466410e-05	1.17786660e-04	7.73127010e-05	0.00000000e+00
15.46           	1.75609530e-01	5.55123270e-05	1.17772030e-04	7.36543510e-05	0.00000000e+00
15.465          	1.25628000e-01	5.55770270e-05	1.17755890e-04	9.29877320e-05	0.00000000e+00
15.47           	1.71893930e-01	5.56407390e-05	1.17738250e-04	1.24048380e-04	0.00000000e+00
15.475          	2.16563160e-01	5.57034710e-05	1.17719110e-04	1.10380850e-04	0.00000000e+00
15.48           	6.89150810e-02	5.57652130e-05	1.17698460e-04	1.13055680e-04	0.00000000e+00
15.485          	1.44063090e-01	5.58259710e-05	1.17676310e-04	1.17892770e-04	0.00000000e+00
15.49           	1.44886750e-01	5.58857450e-05	1.17652650e-04	1.29210450e-04	0.00000000e+00
15.495          	2.10198250e-01	5.59445390e-05	1.17627490e-04	1.28353960e-04	0.00000000e+00
15.5            	7.85865780e-02	5.60023530e-05	1.17600850e-04	1.35015420e-04	0.00000000e+00
15.505          	2.59278750e-01	5.60591840e-05	1.17572700e-04	1.07423010e-04	0.00000000e+00
15.51           	3.97230640e-01	5.61150500e-05	1.17543080e-04	1.61103000e-04	0.00000000e+00
15.515          	1.34376680e-01	5.61699380e-05	1.17511980e-04	1.19496130e-04	0.00000000e+00
15.52           	1.65803700e-01	5.62238460e-05	1.17479380e-04	1.02103740e-04	0.00000000e+00
15.525          	2.07711880e-01	5.62767880e-05	1.17445310e-04	8.20651850e-05	0.00000000e+00
15.53           	1.04458640e-01	5.63287610e-05	1.17409780e-04	9.00506400e-05	0.00000000e+00
15.535          	1.80282650e-01	5.63797730e-05	1.17372780e-04	7.80217100e-05	0.00000000e+00
15.54           	1.77598150e-01	5.64298160e-05	1.17334310e-04	9.75882530e-05	0.00000000e+00
15.545          	1.19379750e-01	5.64788860e-05	1.17294360e-04	6.28347290e-05	0.00000000e+00
15.55           	1.24475950e-01	5.65270040e-05	1.17252970e-04	8.00151480e-05	0.00000000e+00
15.555          	1.09407040e-01	5.65741580e-05	1.17210120e-04	6.39627720e-05	0.00000000e+00
15.56           	1.39365570e-01	5.66203450e-05	1.17165800e-04	9.88474860e-05	0.00000000e+00
15.565          	1.01317170e-01	5.66655780e-05	1.17120040e-04	1.01741450e-04	0.00000000e+00
15.57           	1.28349940e-01	5.67098640e-05	1.17072840e-04	7.74671670e-05	0.00000000e+00
15.575          	1.99787150e-01	5.67531850e-05	1.17024180e-04	9.90430360e-05	0.00000000e+00
15.58           	1.36944880e-01	5.67955630e-05	1.16974100e-04	6.94916130e-05	0.00000000e+00
15.585          	8.55763910e-02	5.68369870e-05	1.16922580e-04	6.75203220e-05	0.00000000e+00
15.59           	2.96688830e-01	5.68774540e-05	1.16869610e-04	5.68831680e-05	0.00000000e+00
15.595          	1.65762690e-01	5.69169850e-05	1.16815230e-04	8.14744290e-05	0.00000000e+00
15.6            	1.46337830e-01	5.69555670e-05	1.16759410e-04	8.00799940e-05	0.00000000e+00
15.605          	1.45505740e-01	5.69931990e-05	1.16702160e-04	5.87008020e-05	0.00000000e+00
15.61           	1.57846560e-01	5.70298920e-05	1.16643500e-04	8.26453500e-05	0.00000000e+00
15.615          	2.18459650e-01	5.70656530e-05	1.16583440e-04	5.23429700e-05	0.00000000e+00
15.62           	1.37664070e-01	5.71004650e-05	1.16521940e-04	5.50197280e-05	0.00000000e+00
15.625          	2.32864190e-01	5.71343440e-05	1.16459040e-04	6.98754900e-05	0.00000000e+00
15.63           	1.62165090e-01	5.71672890e-05	1.16394740e-04	8.33912680e-05	0.00000000e+00
15.635          	1.61283890e-01	5.71993080e-05	1.16329040e-04	5.43652910e-05	0.00000000e+00
15.64           	1.39851760e-01	5.72303860e-05	1.16261930e-04	1.34774350e-04	0.00000000e+00
15.645          	1.09651770e-01	5.72605430e-05	1.16193440e-04	6.44691800e-05	0.00000000e+00
15.65           	2.08598040e-01	5.72897640e-05	1.16123550e-04	5.63654400e-05	0.00000000e+00
15.655          	7.53043420e-02	5.73180680e-05	1.16052280e-04	8.25423510e-05	0.00000000e+00
15.66           	2.33504690e-01	5.73454450e-05	1.15979620e-04	1.01569350e-04	0.00000000e+00
15.665          	1.06353650e-01	5.73719000e-05	1.15905580e-04	5.60781980e-05	0.00000000e+00
15.67           	2.14422760e-01	5.73974270e-05	1.15830150e-04	6.27139220e-05	0.00000000e+00
15.675          	1.40935920e-01	5.74220470e-05	1.15753370e-04	4.47414210e-05	0.00000000e+00
15.68           	1.34331010e-01	5.74457420e-05	1.15675190e-04	7.14602610e-05	0.00000000e+00
15.685          	1.39840330e-01	5.74685310e-05	1.15595670e-04	1.50921660e-04	0.00000000e+00
15.69           	2.82678570e-01	5.74903990e-05	1.15514770e-04	5.63243920e-05	0.00000000e+00
15.695          	9.90398470e-02	5.75113660e-05	1.15432540e-04	3.69245720e-05	0.00000000e+00
15.7            	9.83071130e-02	5.75314210e-05	1.15348930e-04	7.17010250e-05	0.00000000e+00
15.705          	1.56595120e-01	5.75505610e-05	1.15263970e-04	7.94865890e-05	0.00000000e+00
15.71           	1.64293700e-01	5.75688010e-05	1.15177660e-04	4.53697480e-05	0.00000000e+00
15.715          	1.27016170e-01	5.75861390e-05	1.15090010e-04	5.81725390e-05	0.00000000e+00
15.72           	1.03256420e-01	5.76025760e-05	1.15001020e-04	1.26735490e-04	0.00000000e+00
15.725          	1.59656100e-01	5.76181210e-05	1.14910710e-04	5.76703500e-05	0.00000000e+00
15.73           	9.77010660e-02	5.76327580e-05	1.14819050e-04	7.42419520e-05	0.00000000e+00
15.735          	1.66611100e-01	5.76465090e-05	1.14726070e-04	4.52906470e-05	0.00000000e+00
15.74           	2.13946710e-01	5.76593640e-05	1.14631770e-04	7.62191780e-05	0.00000000e+00
15.745          	1.14694650e-01	5.76713260e-05	1.14536130e-04	6.11586800e-05	0.00000000e+00
15.75           	1.20646870e-01	5.76823930e-05	1.14439170e-04	7.22503500e-05	0.00000000e+00
15.755          	1.60594920e-01	5.76925820e-05	1.14340920e-04	8.05706470e-05	0.00000000e+00
15.76           	2.54393790e-01	5.77018830e-05	1.14241350e-04	6.76958840e-05	0.00000000e+00
15.765          	1.01025390e-01	5.77102940e-05	1.14140460e-04	1.14877180e-04	0.00000000e+00
15.77           	1.69727000e-01	5.77178330e-05	1.14038280e-04	6.36868740e-05	0.00000000e+00
15.775          	1.01823220e-01	5.77244910e-05	1.13934800e-04	1.00628090e-04	0.00000000e+00
15.78           	2.87879960e-01	5.77302700e-05	1.13830030e-04	6.36050430e-05	0.00000000e+00
15.785          	1.95234880e-01	5.77351660e-05	1.13723950e-04	8.29121020e-05	0.00000000e+00
15.79           	1.22603690e-01	5.77392010e-05	1.13616610e-04	5.22267190e-05	0.00000000e+00
15.795          	1.05262600e-01	5.77423540e-05	1.13507960e-04	9.80161230e-05	0.00000000e+00
15.8            	3.70129020e-01	5.77446480e-05	1.13398060e-04	7.15442390e-05	0.00000000e+00
15.805          	6.98650620e-02	5.77460660e-05	1.13286860e-04	5.75214080e-05	0.00000000e+00
15.81           	1.65639180e-01	5.77466270e-05	1.13174410e-04	7.81982370e-05	0.00000000e+00
15.815          	9.55849510e-02	5.77463160e-05	1.13060670e-04	7.71620950e-05	0.00000000e+00
15.82           	3.27497280e-01	5.77451540e-05	1.12945680e-04	8.43003370e-05	0.00000000e+00
15.825          	1.92696390e-01	5.77431300e-05	1.12829440e-04	7.07295640e-05	0.00000000e+00
15.83           	2.69213200e-01	5.77402470e-05	1.12711930e-04	6.52096050e-05	0.00000000e+00
15.835          	1.20680210e-01	5.77365030e-05	1.12593160e-04	1.55566720e-04	0.00000000e+00
15.84           	1.25806890e-01	5.77319170e-05	1.12473160e-04	6.76380660e-05	0.00000000e+00
15.845          	1.09612030e-01	5.77264770e-05	1.12351910e-04	1.03602720e-04	0.00000000e+00
15.85           	7.08732160e-02	5.77201810e-05	1.12229410e-04	8.36107310e-05	0.00000000e+00
15.855          	1.01729850e-01	5.77130430e-05	1.12105680e-04	1.31524720e-04	0.00000000e+00
15.86           	8.07310110e-02	5.77050610e-05	1.11980730e-04	1.27527690e-04	0.00000000e+00
15.865          	8.23504070e-02	5.76962440e-05	1.11854560e-04	9.75275500e-05	0.00000000e+00
15.87           	3.45602920e-01	5.76865770e-05	1.11727140e-04	1.20497470e-04	0.00000000e+00
15.875          	4.01309050e-01	5.76760740e-05	1.11598510e-04	8.65456580e-05	0.00000000e+00
15.88           	1.96771040e-01	5.76647370e-05	1.11468670e-04	1.08372320e-04	0.00000000e+00
15.885          	1.81200830e-01	5.76525720e-05	1.11337620e-04	1.32236830e-04	0.00000000e+00
15.89           	1.14265000e-01	5.76395650e-05	1.11205350e-04	9.51388190e-05	0.00000000e+00
15.895          	9.96533180e-02	5.76257320e-05	1.11071890e-04	1.08662260e-04	0.00000000e+00
15.9            	1.07338670e-01	5.76110720e-05	1.10937220e-04	9.66781330e-05	0.00000000e+00
15.905          	1.04081960e-01	5.75955940e-05	1.10801380e-04	1.04525730e-04	0.00000000e+00
15.91           	1.76187240e-01	5.75792820e-05	1.10664320e-04	9.53625780e-05	0.00000000e+00
15.915          	3.18383640e-01	5.75621520e-05	1.10526080e-04	1.25252890e-04	0.00000000e+00
15.92           	1.00267070e-01	5.75442110e-05	1.10386670e-04	1.46294470e-04	0.00000000e+00
15.925          	1.71861430e-01	5.75254430e-05	1.10246070e-04	8.26839550e-05	0.00000000e+00
15.93           	2.31842400e-01	5.75058640e-05	1.10104290e-04	1.20529500e-04	0.00000000e+00
15.935          	1.33744100e-01	5.74854800e-05	1.09961360e-04	8.82357570e-05	0.00000000e+00
15.94           	1.63047190e-01	5.74642750e-05	1.09817250e-04	8.70978810e-05	0.00000000e+00
15.945          	3.20854490e-01	5.74422720e-05	1.09671990e-04	7.52543130e-05	0.00000000e+00
15.95           	2.00243890e-01	5.74194610e-05	1.09525560e-04	7.31124200e-05	0.00000000e+00
15.955          	1.26948860e-01	5.73958440e-05	1.09377980e-04	9.10506830e-05	0.00000000e+00
15.96           	1.34556530e-01	5.73714270e-05	1.09229250e-04	7.50852280e-05	0.00000000e+00
15.965          	1.88119070e-01	5.73462100e-05	1.09079380e-04	1.00273190e-04	0.00000000e+00
15.97           	2.75959750e-01	5.73201900e-05	1.08928350e-04	9.17952170e-05	0.00000000e+00
15.975          	1.01834340e-01	5.72933800e-05	1.08776190e-04	9.79015990e-05	0.00000000e+00
15.98           	1.83237180e-01	5.72657790e-05	1.08622900e-04	8.90661110e-05	0.00000000e+00
15.985          	1.41830540e-01	5.72373940e-05	1.08468500e-04	9.37713350e-05	0.00000000e+00
15.99           	2.43557590e-01	5.72082120e-05	1.08312950e-04	8.48733220e-05	0.00000000e+00
15.995          	1.79407510e-01	5.71782530e-05	1.08156300e-04	8.80089710e-05	0.00000000e+00
16              	1.03191280e-01	5.71475010e-05	1.07998520e-04	8.01392580e-05	0.00000000e+00
16.005          	6.89733290e-02	5.71159720e-05	1.07839630e-04	1.00960250e-04	0.00000000e+00
16.01           	1.88024500e-01	5.70836700e-05	1.07679650e-04	6.08382920e-05	0.00000000e+00
16.015          	1.29846170e-01	5.70505890e-05	1.07518560e-04	1.16961660e-04	0.00000000e+00
16.02           	1.21451020e-01	5.70167250e-05	1.07356360e-04	8.96401080e-05	0.00000000e+00
16.025          	1.33981440e-01	5.69821000e-05	1.07193080e-04	9.99045860e-05	0.00000000e+00
16.03           	1.54951350e-01	5.69467020e-05	1.07028700e-04	1.04104290e-04	0.00000000e+00
16.035          	1.73913440e-01	5.69105360e-05	1.06863240e-04	1.14377690e-04	0.00000000e+00
16.04           	1.93255770e-01	5.68736040e-05	1.06696700e-04	7.05536370e-05	0.00000000e+00
16.045          	1.28306480e-01	5.68359020e-05	1.06529060e-04	1.17406400e-04	0.00000000e+00
16.05           	1.91313240e-01	5.67974510e-05	1.06360380e-04	9.83238990e-05	0.00000000e+00
16.055          	1.52537920e-01	5.67582320e-05	1.06190610e-04	1.35831700e-04	0.00000000e+00
16.06           	1.94090030e-01	5.67182670e-05	1.06019790e-04	1.75183390e-04	0.00000000e+00
16.065          	1.71227380e-01	5.66775390e-05	1.05847900e-04	1.31459000e-04	0.00000000e+00
16.07           	1.92436250e-01	5.66360690e-05	1.05674960e-04	1.35279390e-04	0.00000000e+00
16.075          	2.94624620e-01	5.65938460e-05	1.05500980e-04	7.61554120e-05	0.00000000e+00
16.08           	5.92836130e-02	5.65508700e-05	1.05325930e-04	9.64057500e-05	0.00000000e+00
16.085          	2.33329020e-01	5.65071590e-05	1.05149850e-04	1.31327230e-04	0.00000000e+00
16.09           	3.15991520e-01	5.64627030e-05	1.04972740e-04	1.13749070e-04	0.00000000e+00
16.095          	1.09216530e-01	5.64175000e-05	1.04794580e-04	1.08092570e-04	0.00000000e+00
16.1            	2.08886980e-01	5.63715700e-05	1.04615400e-04	1.49352070e-04	0.00000000e+00
16.105          	1.41333640e-01	5.63249020e-05	1.04435200e-04	1.42404070e-04	0.00000000e+00
16.11           	1.90670530e-01	5.62775000e-05	1.04253980e-04	1.72425270e-04	0.00000000e+00
16.115          	3.23339160e-01	5.62293610e-05	1.04071730e-04	1.21686990e-04	0.00000000e+00
16.12           	1.17466180e-01	5.61805040e-05	1.03888480e-04	2.02389690e-04	0.00000000e+00
16.125          	1.57102220e-01	5.61309190e-05	1.03704220e-04	2.25956510e-04	0.00000000e+00
16.13           	1.37406400e-01	5.60806090e-05	1.03518960e-04	1.83363120e-04	0.00000000e+00
16.135          	1.44313250e-01	5.60295720e-05	1.03332690e-04	2.41034480e-04	0.00000000e+00
16.14           	1.57967040e-01	5.59778270e-05	1.03145450e-04	2.15635980e-04	0.00000000e+00
16.145          	8.65003760e-02	5.59253560e-05	1.02957200e-04	2.07361850e-04	0.00000000e+00
16.15           	1.00931030e-01	5.58721740e-05	1.02767970e-04	1.83913810e-04	0.00000000e+00
16.155          	1.59774620e-01	5.58182890e-05	1.02577770e-04	2.34442710e-04	0.00000000e+00
16.16           	3.93526250e-01	5.57636900e-05	1.02386590e-04	1.90563230e-04	0.00000000e+00
16.165          	3.13027560e-01	5.57083830e-05	1.02194440e-04	2.45328910e-04	0.00000000e+00
16.17           	2.77810040e-01	5.56523720e-05	1.02001320e-04	1.75199310e-04	0.00000000e+00
16.175          	1.13763400e-01	5.55956520e-05	1.01807220e-04	2.78168460e-04	0.00000000e+00
16.18           	2.03109400e-01	5.55382360e-05	1.01612170e-04	2.29686690e-04	0.00000000e+00
16.185          	1.22059790e-01	5.54801310e-05	1.01416190e-04	1.69883650e-04	0.00000000e+00
16.19           	6.95747620e-02	5.54213270e-05	1.01219250e-04	1.85456670e-04	0.00000000e+00
16.195          	1.63872660e-01	5.53618300e-05	1.01021360e-04	1.96444190e-04	0.00000000e+00
16.2            	9.16154940e-02	5.53016420e-05	1.00822530e-04	1.38807920e-04	0.00000000e+00
16.205          	1.55056350e-01	5.52407610e-05	1.00622760e-04	2.67425450e-04	0.00000000e+00
16.21           	1.73450010e-01	5.51791980e-05	1.00422060e-04	1.46574310e-04	0.00000000e+00
16.215          	2.16144870e-01	5.51169530e-05	1.00220440e-04	1.48368830e-04	0.00000000e+00
16.22           	1.48633760e-01	5.50540290e-05	1.00017900e-04	1.33424050e-04	0.00000000e+00
16.225          	1.17538820e-01	5.49904270e-05	9.98144370e-05	1.77197010e-04	0.00000000e+00
16.23           	2.58558850e-01	5.49261500e-05	9.96100650e-05	1.73540350e-04	0.00000000e+00
16.235          	1.44695490e-01	5.48612050e-05	9.94047960e-05	1.97424860e-04	0.00000000e+00
16.24           	2.24764670e-01	5.47955800e-05	9.91986040e-05	1.59583160e-04	0.00000000e+00
16.245          	2.87756750e-01	5.47292950e-05	9.89915290e-05	1.47450470e-04	0.00000000e+00
16.25           	5.18816210e-01	5.46623350e-05	9.87835430e-05	1.75765640e-04	0.00000000e+00
16.255          	1.04395660e-01	5.45947200e-05	9.85746830e-05	1.67563310e-04	0.00000000e+00
16.26           	2.62050640e-01	5.45264360e-05	9.83649210e-05	1.61656240e-04	0.00000000e+00
16.265          	1.08812440e-01	5.44575020e-05	9.81542950e-05	1.74714370e-04	0.00000000e+00
16.27           	3.58510840e-01	5.43879030e-05	9.79427760e-05	1.74904870e-04	0.00000000e+00
16.275          	1.62808870e-01	5.43176540e-05	9.77303910e-05	1.67810910e-04	0.00000000e+00
16.28           	2.77585670e-01	5.42467600e-05	9.75171520e-05	1.59241530e-04	0.00000000e+00
16.285          	1.40789670e-01	5.41752080e-05	9.73030320e-05	1.49169190e-04	0.00000000e+00
16.29           	2.17225220e-01	5.41030120e-05	9.70880590e-05	1.32968690e-04	0.00000000e+00
16.295          	2.80211250e-01	5.40301740e-05	9.68722350e-05	1.11255450e-04	0.00000000e+00
16.3            	1.69446580e-01	5.39567000e-05	9.66555730e-05	1.59523950e-04	0.00000000e+00
16.305          	2.74032510e-01	5.38825780e-05	9.64380490e-05	1.42873090e-04	0.00000000e+00
16.31           	1.16794610e-01	5.38078220e-05	9.62196900e-05	1.70056020e-04	0.00000000e+00
16.315          	2.96481870e-01	5.37324320e-05	9.60004980e-05	1.63901860e-04	0.00000000e+00
16.32           	1.34686910e-01	5.36564120e-05	9.57804760e-05	1.59452990e-04	0.00000000e+00
16.325          	1.41014560e-01	5.35797630e-05	9.55596280e-05	1.84013000e-04	0.00000000e+00
16.33           	7.25276720e-02	5.35024930e-05	9.53379710e-05	1.57516290e-04	0.00000000e+00
16.335          	2.28625290e-01	5.34245950e-05	9.51154890e-05	1.91488340e-04	0.00000000e+00
16.34           	1.94902110e-01	5.33460740e-05	9.48921930e-05	1.98896890e-04	0.00000000e+00
16.345          	2.07911790e-01	5.32669280e-05	9.46680780e-05	2.39063950e-04	0.00000000e+00
16.35           	1.68868320e-01	5.31871750e-05	9.44431770e-05	1.59271920e-04	0.00000000e+00
16.355          	1.46232330e-01	5.31067990e-05	9.42174630e-05	1.58814330e-04	0.00000000e+00
16.36           	2.82577790e-01	5.30258200e-05	9.39909720e-05	1.90685320e-04	0.00000000e+00
16.365          	1.36006710e-01	5.29442230e-05	9.37636760e-05	1.69654990e-04	0.00000000e+00
16.37           	2.93453660e-01	5.28620290e-05	9.35356120e-05	1.89924080e-04	0.00000000e+00
16.375          	1.82521320e-01	5.27792210e-05	9.33067530e-05	2.25458390e-04	0.00000000e+00
16.38           	1.12113680e-01	5.26958210e-05	9.30771340e-05	1.51704320e-04	0.00000000e+00
16.385          	1.52618970e-01	5.26118130e-05	9.28467290e-05	1.33772020e-04	0.00000000e+00
16.39           	1.29914320e-01	5.25272160e-05	9.26155750e-05	1.38531860e-04	0.00000000e+00
16.395          	2.49205580e-01	5.24420170e-05	9.23836430e-05	1.07051390e-04	0.00000000e+00
16.4            	1.61011050e-01	5.23562350e-05	9.21509710e-05	1.27192140e-04	0.00000000e+00
16.405          	9.27954450e-02	5.22698550e-05	9.19175310e-05	1.52303520e-04	0.00000000e+00
16.41           	1.54434200e-01	5.21828970e-05	9.16833610e-05	9.80683800e-05	0.00000000e+00
16.415          	2.71422930e-01	5.20953460e-05	9.14484320e-05	6.94414400e-05	0.00000000e+00
16.42           	2.30853890e-01	5.20072160e-05	9.12127700e-05	1.05491900e-04	0.00000000e+00
16.425          	1.18680270e-01	5.19185140e-05	9.09763880e-05	1.83237820e-04	0.00000000e+00
16.43           	2.62668410e-01	5.18292320e-05	9.07392710e-05	1.07397300e-04	0.00000000e+00
16.435          	7.76923990e-02	5.17393680e-05	9.05014170e-05	5.91116720e-05	0.00000000e+00
16.44           	2.88538280e-01	5.16489430e-05	9.02628610e-05	8.92866940e-05	0.00000000e+00
16.445          	3.29048820e-01	5.15579390e-05	9.00235750e-05	7.80965460e-05	0.00000000e+00
16.45           	1.38449930e-01	5.14663780e-05	8.97835960e-05	8.26044520e-05	0.00000000e+00
16.455          	1.12438180e-01	5.13742440e-05	8.95428950e-05	1.26297020e-04	0.00000000e+00
16.46           	7.26010410e-02	5.12815520e-05	8.93015000e-05	1.75722010e-04	0.00000000e+00
16.465          	9.40243880e-02	5.11883070e-05	8.90594200e-05	1.21441110e-04	0.00000000e+00
16.47           	1.93228240e-01	5.10944960e-05	8.88166330e-05	1.14722910e-04	0.00000000e+00
16.475          	1.41561790e-01	5.10001400e-05	8.85731750e-05	1.84392910e-04	0.00000000e+00
16.48           	2.89644260e-01	5.09052300e-05	8.83290290e-05	1.52852140e-04	0.00000000e+00
16.485          	4.41050300e-01	5.08097630e-05	8.80841950e-05	1.79964590e-04	0.00000000e+00
16.49           	8.19639760e-02	5.07137540e-05	8.78386940e-05	1.23103300e-04	0.00000000e+00
16.495          	1.86095960e-01	5.06172080e-05	8.75925380e-05	1.24164670e-04	0.00000000e+00
16.5            	1.58168360e-01	5.05201120e-05	8.73457030e-05	1.03196270e-04	0.00000000e+00
16.505          	1.82185990e-01	5.04224850e-05	8.70982240e-05	1.22793510e-04	0.00000000e+00
16.51           	2.26754570e-01	5.03243190e-05	8.68500860e-05	1.97644570e-04	0.00000000e+00
16.515          	1.07406240e-01	5.02256130e-05	8.66012880e-05	9.54509160e-05	0.00000000e+00
16.52           	1.30022620e-01	5.01263790e-05	8.63518510e-05	8.95476440e-05	0.00000000e+00
16.525          	7.88292490e-02	5.00266170e-05	8.61017770e-05	1.61511410e-04	0.00000000e+00
16.53           	2.99325990e-01	4.99263300e-05	8.58510680e-05	1.54981260e-04	0.00000000e+00
16.535          	1.19719910e-01	4.98255200e-05	8.55997290e-05	2.15277480e-04	0.00000000e+00
16.54           	1.64711780e-01	4.97241880e-05	8.53477650e-05	1.79791170e-04	0.00000000e+00
16.545          	1.17374290e-01	4.96223430e-05	8.50951900e-05	1.40028540e-04	0.00000000e+00
16.55           	1.67294670e-01	4.95199740e-05	8.48419820e-05	1.47420020e-04	0.00000000e+00
16.555          	2.40539130e-01	4.94170930e-05	8.45881670e-05	1.57536660e-04	0.00000000e+00
16.56           	1.06598190e-01	4.93137020e-05	8.43337470e-05	1.65236720e-04	0.00000000e+00
16.565          	1.06656640e-01	4.92098040e-05	8.40787250e-05	1.80589310e-04	0.00000000e+00
16.57           	1.68295580e-01	4.91053990e-05	8.38231050e-05	1.34909180e-04	0.00000000e+00
16.575          	1.48118180e-01	4.90004980e-05	8.35669030e-05	1.70201990e-04	0.00000000e+00
16.58           	1.67675750e-01	4.88950860e-05	8.33100960e-05	1.47693040e-04	0.00000000e+00
16.585          	1.06780790e-01	4.87891840e-05	8.30527200e-05	1.61417220e-04	0.00000000e+00
16.59           	1.63090700e-01	4.86827830e-05	8.27947600e-05	1.15293830e-04	0.00000000e+00
16.595          	2.26580210e-01	4.85758830e-05	8.25362140e-05	9.47533410e-05	0.00000000e+00
16.6            	1.70041770e-01	4.84684960e-05	8.22771050e-05	1.03391290e-04	0.00000000e+00
16.605          	7.89609700e-02	4.83606280e-05	8.20174430e-05	1.08976940e-04	0.00000000e+00
16.61           	3.87902010e-01	4.82522660e-05	8.17572050e-05	5.42825520e-05	0.00000000e+00
16.615          	1.93310430e-01	4.81434230e-05	8.14964170e-05	5.34098530e-05	0.00000000e+00
16.62           	3.17917370e-01	4.80341010e-05	8.12350790e-05	7.92464930e-05	0.00000000e+00
16.625          	7.95558990e-02	4.79243070e-05	8.09732050e-05	1.00875510e-04	0.00000000e+00
16.63           	1.55771060e-01	4.78140340e-05	8.07107840e-05	8.06577080e-05	0.00000000e+00
16.635          	9.67918300e-02	4.77032880e-05	8.04478240e-05	5.82941800e-05	0.00000000e+00
16.64           	1.43975200e-01	4.75920650e-05	8.01843220e-05	6.47857490e-05	0.00000000e+00
16.645          	1.45657980e-01	4.74803790e-05	7.99202980e-05	6.46391980e-05	0.00000000e+00
16.65           	2.80743990e-01	4.73682280e-05	7.96557540e-05	6.20139480e-05	0.00000000e+00
16.655          	6.15545680e-02	4.72556160e-05	7.93906930e-05	5.10753790e-05	0.00000000e+00
16.66           	7.53655660e-02	4.71425500e-05	7.91251280e-05	6.66843890e-05	0.00000000e+00
16.665          	1.25005290e-01	4.70290220e-05	7.88590480e-05	6.75971480e-05	0.00000000e+00
16.67           	7.57789620e-02	4.69150330e-05	7.85924520e-05	1.06076410e-04	0.00000000e+00
16.675          	2.57122070e-01	4.68006010e-05	7.83253720e-05	8.42670160e-05	0.00000000e+00
16.68           	1.68215370e-01	4.66857110e-05	7.80577840e-05	6.25920810e-05	0.00000000e+00
16.685          	2.22416970e-01	4.65703820e-05	7.77897200e-05	6.42723960e-05	0.00000000e+00
16.69           	2.48660250e-01	4.64546010e-05	7.75211570e-05	8.86851500e-05	0.00000000e+00
16.695          	1.01253070e-01	4.63383860e-05	7.72521270e-05	7.13276020e-05	0.00000000e+00
16.7            	6.96562540e-02	4.62217280e-05	7.69826160e-05	1.55287040e-04	0.00000000e+00
16.705          	1.88088220e-01	4.61046280e-05	7.67126230e-05	7.94640920e-05	0.00000000e+00
16.71           	9.57326260e-02	4.59871020e-05	7.64421780e-05	9.07532200e-05	0.00000000e+00
16.715          	1.92579490e-01	4.58691410e-05	7.61712660e-05	7.77387310e-05	0.00000000e+00
16.72           	1.68486970e-01	4.57507510e-05	7.58998960e-05	1.27586870e-04	0.00000000e+00
16.725          	8.29986320e-02	4.56319340e-05	7.56280730e-05	6.64202340e-05	0.00000000e+00
16.73           	3.21325880e-01	4.55126870e-05	7.53557920e-05	8.56897680e-05	0.00000000e+00
16.735          	2.17991550e-01	4.53930220e-05	7.50830740e-05	1.02144410e-04	0.00000000e+00
16.74           	1.69968270e-01	4.52729400e-05	7.48099190e-05	1.22514280e-04	0.00000000e+00
16.745          	1.07014320e-01	4.51524410e-05	7.45363300e-05	9.70395000e-05	0.00000000e+00
16.75           	2.08335370e-01	4.50315340e-05	7.42623210e-05	8.09002590e-05	0.00000000e+00
16.755          	1.42713710e-01	4.49102060e-05	7.39878720e-05	1.16021840e-04	0.00000000e+00
16.76           	1.07402820e-01	4.47884730e-05	7.37130070e-05	6.35906170e-05	0.00000000e+00
16.765          	1.95327700e-01	4.46663390e-05	7.34377360e-05	1.12325920e-04	0.00000000e+00
16.77           	1.06001670e-01	4.45437980e-05	7.31620480e-05	6.42765920e-05	0.00000000e+00
16.775          	1.44805790e-01	4.44208550e-05	7.28859520e-05	5.99504140e-05	0.00000000e+00
16.78           	1.20184760e-01	4.42975130e-05	7.26094540e-05	8.42535280e-05	0.00000000e+00
16.785          	2.66474570e-01	4.41737750e-05	7.23325580e-05	8.96538880e-05	0.00000000e+00
16.79           	1.15134690e-01	4.40496440e-05	7.20552700e-05	1.12178580e-04	0.00000000e+00
16.795          	2.25482150e-01	4.39251210e-05	7.17775930e-05	1.02711090e-04	0.00000000e+00
16.8            	1.14777410e-01	4.38002050e-05	7.14995250e-05	1.31943190e-04	0.00000000e+00
16.805          	2.26926940e-01	4.36749120e-05	7.12210910e-05	8.18624230e-05	0.00000000e+00
16.81           	1.75988900e-01	4.35492330e-05	7.09422800e-05	8.75651370e-05	0.00000000e+00
16.815          	1.19450650e-01	4.34231720e-05	7.06630980e-05	1.17011100e-04	0.00000000e+00
16.82           	8.44278520e-02	4.32967280e-05	7.03835420e-05	9.82503370e-05	0.00000000e+00
16.825          	1.25322300e-01	4.31699170e-05	7.01036390e-05	1.19428730e-04	0.00000000e+00
16.83           	6.19511050e-02	4.30427300e-05	6.98233770e-05	1.31270500e-04	0.00000000e+00
16.835          	1.15136990e-01	4.29151720e-05	6.95427620e-05	9.57676680e-05	0.00000000e+00
16.84           	1.59934010e-01	4.27872460e-05	6.92618000e-05	9.08563970e-05	0.00000000e+00
16.845          	1.35010990e-01	4.26589490e-05	6.89804880e-05	1.48248940e-04	0.00000000e+00
16.85           	2.72996620e-01	4.25302930e-05	6.86988430e-05	6.68935450e-05	0.00000000e+00
16.855          	1.26848920e-01	4.24012820e-05	6.84168750e-05	1.18429840e-04	0.00000000e+00
16.86           	2.01000860e-01	4.22719050e-05	6.81345660e-05	4.58307060e-05	0.00000000e+00
16.865          	1.49691060e-01	4.21421800e-05	6.78519450e-05	5.91935510e-05	0.00000000e+00
16.87           	1.04800550e-01	4.20121000e-05	6.75690000e-05	4.72437380e-05	0.00000000e+00
16.875          	2.46641730e-01	4.18816640e-05	6.72857310e-05	5.67605440e-05	0.00000000e+00
16.88           	2.84705670e-01	4.17508880e-05	6.70021640e-05	8.36338840e-05	0.00000000e+00
16.885          	1.82679040e-01	4.16197650e-05	6.67182880e-05	4.53564380e-05	0.00000000e+00
16.89           	4.01960780e-01	4.14882980e-05	6.64341100e-05	7.91735640e-05	0.00000000e+00
16.895          	1.14390750e-01	4.13564860e-05	6.61496270e-05	1.14999460e-04	0.00000000e+00
16.9            	4.05533170e-01	4.12243390e-05	6.58648570e-05	6.59643540e-05	0.00000000e+00
16.905          	3.17907190e-01	4.10918590e-05	6.55798010e-05	1.09746270e-04	0.00000000e+00
16.91           	2.70381090e-01	4.09590500e-05	6.52944700e-05	1.32989130e-04	0.00000000e+00
16.915          	1.23745270e-01	4.08259040e-05	6.50088470e-05	6.85347420e-05	0.00000000e+00
16.92           	1.37161860e-01	4.06924380e-05	6.47229620e-05	9.25826640e-05	0.00000000e+00
16.925          	3.41840970e-01	4.05586440e-05	6.44368030e-05	6.17258840e-05	0.00000000e+00
16.93           	2.53638750e-01	4.04245220e-05	6.41503700e-05	1.06226410e-04	0.00000000e+00
16.935          	1.61559890e-01	4.02900830e-05	6.38636820e-05	6.24927780e-05	0.00000000e+00
16.94           	9.69703110e-02	4.01553270e-05	6.35767380e-05	6.84071010e-05	0.00000000e+00
16.945          	1.50772540e-01	4.00202610e-05	6.32895510e-05	1.16448950e-04	0.00000000e+00
16.95           	2.83675250e-01	3.98848760e-05	6.30021050e-05	1.02395940e-04	0.00000000e+00
16.955          	3.23531320e-01	3.97491820e-05	6.27144190e-05	8.67942410e-05	0.00000000e+00
16.96           	3.19681120e-01	3.96131820e-05	6.24264970e-05	6.90757130e-05	0.00000000e+00
16.965          	2.26958260e-01	3.94768770e-05	6.21383410e-05	7.49120520e-05	0.00000000e+00
16.97           	1.39721720e-01	3.93402700e-05	6.18499550e-05	1.18684550e-04	0.00000000e+00
16.975          	3.37351390e-01	3.92033680e-05	6.15613520e-05	1.27632740e-04	0.00000000e+00
16.98           	1.76877680e-01	3.90661650e-05	6.12725240e-05	7.50253200e-05	0.00000000e+00
16.985          	1.33867850e-01	3.89286660e-05	6.09834790e-05	1.23326650e-04	0.00000000e+00
16.99           	2.23899880e-01	3.87908750e-05	6.06942210e-05	1.12501600e-04	0.00000000e+00
16.995          	2.21292060e-01	3.86527890e-05	6.04047490e-05	5.13607160e-05	0.00000000e+00
17              	7.39664820e-02	3.85144190e-05	6.01150790e-05	8.95303910e-05	0.00000000e+00
17.005          	2.32179160e-01	3.83757690e-05	5.98252190e-05	1.04196130e-04	0.00000000e+00
17.01           	2.88844910e-01	3.82368350e-05	5.95351610e-05	4.37578110e-05	0.00000000e+00
17.015          	1.09861020e-01	3.80976150e-05	5.92449060e-05	1.38951480e-04	0.00000000e+00
17.02           	9.56730540e-02	3.79581250e-05	5.89544760e-05	9.24615060e-05	0.00000000e+00
17.025          	1.15184770e-01	3.78183580e-05	5.86638630e-05	8.88901750e-05	0.00000000e+00
17.03           	2.07216390e-01	3.76783180e-05	5.83730720e-05	9.37076020e-05	0.00000000e+00
17.035          	1.89955570e-01	3.75380080e-05	5.80821090e-05	1.31792550e-04	0.00000000e+00
17.04           	9.20126060e-02	3.73974260e-05	5.77909720e-05	1.03178470e-04	0.00000000e+00
17.045          	1.14795880e-01	3.72565860e-05	5.74996830e-05	1.05753190e-04	0.00000000e+00
17.05           	9.73799110e-02	3.71154770e-05	5.72082250e-05	1.36686540e-04	0.00000000e+00
17.055          	4.20095590e-01	3.69741150e-05	5.69166240e-05	1.54631330e-04	0.00000000e+00
17.06           	9.42232550e-02	3.68324890e-05	5.66248620e-05	1.54233630e-04	0.00000000e+00
17.065          	1.53459860e-01	3.66906110e-05	5.63329580e-05	1.13988270e-04	0.00000000e+00
17.07           	7.00324530e-02	3.65484840e-05	5.60409200e-05	1.22655360e-04	0.00000000e+00
17.075          	8.19900270e-02	3.64061010e-05	5.57487350e-05	1.79969530e-04	0.00000000e+00
17.08           	1.89560700e-01	3.62634760e-05	5.54564260e-05	1.43289590e-04	0.00000000e+00
17.085          	8.09398420e-02	3.61206040e-05	5.51639860e-05	1.57992490e-04	0.00000000e+00
17.09           	1.56353930e-01	3.59774890e-05	5.48714200e-05	2.26801980e-04	0.00000000e+00
17.095          	1.17333350e-01	3.58341290e-05	5.45787280e-05	1.62897970e-04	0.00000000e+00
17.1            	1.11167510e-01	3.56905330e-05	5.42859250e-05	2.06757760e-04	0.00000000e+00
17.105          	4.98284260e-02	3.55467080e-05	5.39930190e-05	2.10677230e-04	0.00000000e+00
17.11           	9.86528410e-02	3.54026430e-05	5.36999950e-05	1.80008230e-04	0.00000000e+00
17.115          	1.33481060e-01	3.52583540e-05	5.34068780e-05	1.41518050e-04	0.00000000e+00
17.12           	6.79708790e-02	3.51138340e-05	5.31136590e-05	2.04151510e-04	0.00000000e+00
17.125          	9.93459920e-02	3.49690850e-05	5.28203390e-05	1.30856610e-04	0.00000000e+00
17.13           	2.13629350e-01	3.48241190e-05	5.25269400e-05	1.27950330e-04	0.00000000e+00
17.135          	3.57169460e-01	3.46789300e-05	5.22334510e-05	1.75837050e-04	0.00000000e+00
17.14           	1.02265640e-01	3.45335220e-05	5.19398810e-05	2.32832190e-04	0.00000000e+00
17.145          	1.04842270e-01	3.43878990e-05	5.16462330e-05	1.37448820e-04	0.00000000e+00
17.15           	1.29047480e-01	3.42420580e-05	5.13525060e-05	1.37891780e-04	0.00000000e+00
17.155          	1.85560320e-01	3.40960090e-05	5.10587150e-05	1.29529660e-04	0.00000000e+00
17.16           	1.31392590e-01	3.39497520e-05	5.07648600e-05	1.30540870e-04	0.00000000e+00
17.165          	1.53634180e-01	3.38032900e-05	5.04709460e-05	9.72550810e-05	0.00000000e+00
17.17           	2.20485860e-01	3.36566240e-05	5.01769760e-05	1.12338730e-04	0.00000000e+00
17.175          	1.18716230e-01	3.35097570e-05	4.98829540e-05	1.01560760e-04	0.00000000e+00
17.18           	2.37797730e-01	3.33626920e-05	4.95888840e-05	1.26087290e-04	0.00000000e+00
17.185          	4.06502770e-01	3.32154300e-05	4.92947710e-05	1.02644710e-04	0.00000000e+00
17.19           	2.74839170e-01	3.30679780e-05	4.90006250e-05	1.05638440e-04	0.00000000e+00
17.195          	1.78893020e-01	3.29203310e-05	4.87064390e-05	1.06802420e-04	0.00000000e+00
17.2            	1.24674830e-01	3.27724910e-05	4.84122160e-05	7.58344320e-05	0.00000000e+00
17.205          	9.82421880e-02	3.26244670e-05	4.81179690e-05	7.68326860e-05	0.00000000e+00
17.21           	2.69750650e-01	3.24762590e-05	4.78237000e-05	7.67588060e-05	0.00000000e+00
17.215          	1.39669720e-01	3.23278730e-05	4.75294190e-05	8.41153950e-05	0.00000000e+00
17.22           	9.79622970e-02	3.21793060e-05	4.72351200e-05	1.08033880e-04	0.00000000e+00
17.225          	3.16081000e-01	3.20305560e-05	4.69408040e-05	5.86373990e-05	0.00000000e+00
17.23           	2.45998210e-01	3.18816340e-05	4.66464850e-05	8.54539330e-05	0.00000000e+00
17.235          	2.08699360e-01	3.17325410e-05	4.63521640e-05	5.12501830e-05	0.00000000e+00
17.24           	1.28694410e-01	3.15832820e-05	4.60578520e-05	6.27113230e-05	0.00000000e+00
17.245          	4.37076190e-01	3.14338520e-05	4.57635420e-05	1.20187020e-04	0.00000000e+00
17.25           	6.25600400e-02	3.12842570e-05	4.54692410e-05	4.32426020e-05	0.00000000e+00
17.255          	1.03070570e-01	3.11344990e-05	4.51749540e-05	7.56012120e-05	0.00000000e+00
17.26           	1.91480080e-01	3.09845800e-05	4.48806850e-05	9.86488970e-05	0.00000000e+00
17.265          	1.18343830e-01	3.08344990e-05	4.45864320e-05	9.60847960e-05	0.00000000e+00
17.27           	1.63045120e-01	3.06842660e-05	4.42922100e-05	9.98243740e-05	0.00000000e+00
17.275          	9.41814800e-02	3.05338790e-05	4.39980190e-05	9.77052060e-05	0.00000000e+00
17.28           	8.84549620e-02	3.03833460e-05	4.37038680e-05	1.05547330e-04	0.00000000e+00
17.285          	2.72837350e-01	3.02326580e-05	4.34097470e-05	1.39738570e-04	0.00000000e+00
17.29           	4.28353860e-01	3.00818260e-05	4.31156710e-05	1.55141960e-04	0.00000000e+00
17.295          	1.80724730e-01	2.99308540e-05	4.28216460e-05	1.15271190e-04	0.00000000e+00
17.3            	8.66243760e-02	2.97797380e-05	4.25276690e-05	1.12559920e-04	0.00000000e+00
17.305          	2.22650670e-01	2.96284820e-05	4.22337460e-05	1.30151280e-04	0.00000000e+00
17.31           	1.26716710e-01	2.94770900e-05	4.19398800e-05	1.41410150e-04	0.00000000e+00
17.315          	1.62751920e-01	2.93255590e-05	4.16460710e-05	2.13997100e-04	0.00000000e+00
17.32           	2.37169510e-01	2.91739010e-05	4.13523370e-05	1.43091890e-04	0.00000000e+00
17.325          	1.15278250e-01	2.90221130e-05	4.10586710e-05	1.38238150e-04	0.00000000e+00
17.33           	6.83737930e-02	2.88701930e-05	4.07650730e-05	1.12320140e-04	0.00000000e+00
17.335          	1.22081120e-01	2.87181530e-05	4.04715610e-05	1.11077740e-04	0.00000000e+00
17.34           	1.44484210e-01	2.85659860e-05	4.01781240e-05	1.69920600e-04	0.00000000e+00
17.345          	1.68077650e-01	2.84137000e-05	3.98847750e-05	1.02587640e-04	0.00000000e+00
17.35           	1.10363980e-01	2.82612990e-05	3.95915220e-05	8.59762870e-05	0.00000000e+00
17.355          	9.54920400e-02	2.81087810e-05	3.92983590e-05	1.09288600e-04	0.00000000e+00
17.36           	7.56261330e-02	2.79561450e-05	3.90052880e-05	1.58319350e-04	0.00000000e+00
17.365          	1.26067050e-01	2.78034030e-05	3.87123260e-05	1.15821360e-04	0.00000000e+00
17.37           	1.55986240e-01	2.76505470e-05	3.84194620e-05	7.88234470e-05	0.00000000e+00
17.375          	3.17659890e-01	2.74975870e-05	3.81267100e-05	9.83217710e-05	0.00000000e+00
17.38           	6.62676140e-02	2.73445220e-05	3.78340710e-05	5.71078190e-05	0.00000000e+00
17.385          	2.56624990e-01	2.71913590e-05	3.75415540e-05	1.28258480e-04	0.00000000e+00
17.39           	7.19416950e-02	2.70380940e-05	3.72491550e-05	1.07017590e-04	0.00000000e+00
17.395          	3.00997720e-01	2.68847310e-05	3.69568790e-05	9.40600970e-05	0.00000000e+00
17.4            	1.81527760e-01	2.67312730e-05	3.66647300e-05	1.12513790e-04	0.00000000e+00
17.405          	9.41052100e-02	2.65777180e-05	3.63727090e-05	7.57279540e-05	0.00000000e+00
17.41           	1.78864630e-01	2.64240780e-05	3.60808310e-05	8.43298190e-05	0.00000000e+00
17.415          	3.13059420e-01	2.62703450e-05	3.57890860e-05	6.65661960e-05	0.00000000e+00
17.42           	1.14197460e-01	2.61165310e-05	3.54974920e-05	7.92614500e-05	0.00000000e+00
17.425          	8.58321960e-02	2.59626280e-05	3.52060370e-05	7.02134550e-05	0.00000000e+00
17.43           	9.68679130e-02	2.58086450e-05	3.49147360e-05	6.75636830e-05	0.00000000e+00
17.435          	6.74813640e-02	2.56545860e-05	3.46235940e-05	7.16935930e-05	0.00000000e+00
17.44           	1.38817710e-01	2.55004490e-05	3.43326070e-05	8.05936360e-05	0.00000000e+00
17.445          	1.11679920e-01	2.53462320e-05	3.40417780e-05	1.08463670e-04	0.00000000e+00
17.45           	2.60940630e-01	2.51919460e-05	3.37511160e-05	6.51838100e-05	0.00000000e+00
17.455          	3.50042050e-01	2.50375920e-05	3.34606290e-05	6.55372540e-05	0.00000000e+00
17.46           	2.50773040e-01	2.48831690e-05	3.31703120e-05	5.48375330e-05	0.00000000e+00
17.465          	1.38655770e-01	2.47286790e-05	3.28801710e-05	1.37482520e-04	0.00000000e+00
17.47           	2.67679990e-01	2.45741250e-05	3.25902110e-05	7.33007020e-05	0.00000000e+00
17.475          	5.77354890e-01	2.44195070e-05	3.23004300e-05	1.10824190e-04	0.00000000e+00
17.48           	1.00173310e-01	2.42648310e-05	3.20108390e-05	1.16064980e-04	0.00000000e+00
17.485          	1.36404620e-01	2.41101030e-05	3.17214440e-05	7.38693070e-05	0.00000000e+00
17.49           	2.42907470e-01	2.39553170e-05	3.14322420e-05	7.40217400e-05	0.00000000e+00
17.495          	1.67501680e-01	2.38004790e-05	3.11432380e-05	9.91966980e-05	0.00000000e+00
17.5            	1.18054560e-01	2.36455870e-05	3.08544310e-05	7.35093220e-05	0.00000000e+00
17.505          	1.05327170e-01	2.34906490e-05	3.05658330e-05	8.28354740e-05	0.00000000e+00
17.51           	1.74382590e-01	2.33356690e-05	3.02774490e-05	6.52170550e-05	0.00000000e+00
17.515          	1.31234410e-01	2.31806430e-05	2.99892750e-05	7.24603240e-05	0.00000000e+00
17.52           	2.27420130e-01	2.30255720e-05	2.97013130e-05	8.16019880e-05	0.00000000e+00
17.525          	1.58698140e-01	2.28704660e-05	2.94135760e-05	1.06587130e-04	0.00000000e+00
17.53           	2.41363690e-01	2.27153220e-05	2.91260620e-05	1.54378040e-04	0.00000000e+00
17.535          	1.26731800e-01	2.25601420e-05	2.88387740e-05	1.07022570e-04	0.00000000e+00
17.54           	2.27408880e-01	2.24049270e-05	2.85517130e-05	7.28582330e-05	0.00000000e+00
17.545          	1.11320210e-01	2.22496850e-05	2.82648910e-05	8.10263510e-05	0.00000000e+00
17.55           	1.32304210e-01	2.20944110e-05	2.79783020e-05	8.51995120e-05	0.00000000e+00
17.555          	8.82234330e-02	2.19391150e-05	2.76919590e-05	8.37629360e-05	0.00000000e+00
17.56           	1.90444770e-01	2.17837910e-05	2.74058550e-05	9.01981940e-05	0.00000000e+00
17.565          	1.35848020e-01	2.16284460e-05	2.71200010e-05	8.94373550e-05	0.00000000e+00
17.57           	1.21412100e-01	2.14730840e-05	2.68344030e-05	8.53247200e-05	0.00000000e+00
17.575          	5.47967380e-02	2.13177000e-05	2.65490530e-05	1.16237210e-04	0.00000000e+00
17.58           	2.82693220e-01	2.11623020e-05	2.62639640e-05	9.01855630e-05	0.00000000e+00
17.585          	1.47112230e-01	2.10068910e-05	2.59791360e-05	7.48369200e-05	0.00000000e+00
17.59           	7.14132140e-02	2.08514720e-05	2.56945770e-05	8.83396590e-05	0.00000000e+00
17.595          	9.65643880e-02	2.06960410e-05	2.54102850e-05	8.73598130e-05	0.00000000e+00
17.6            	1.62528210e-01	2.05406030e-05	2.51262630e-05	8.58203300e-05	0.00000000e+00
17.605          	1.01380260e-01	2.03851590e-05	2.48425160e-05	7.54192750e-05	0.00000000e+00
17.61           	2.15553640e-01	2.02297130e-05	2.45590480e-05	6.60833930e-05	0.00000000e+00
17.615          	1.21911880e-01	2.00742640e-05	2.42758590e-05	6.39136670e-05	0.00000000e+00
17.62           	1.97304500e-01	1.99188200e-05	2.39929600e-05	1.10925030e-04	0.00000000e+00
17.625          	1.06609760e-01	1.97633760e-05	2.37103450e-05	7.91483590e-05	0.00000000e+00
17.63           	6.25484010e-02	1.96079410e-05	2.34280260e-05	5.21448820e-05	0.00000000e+00
17.635          	3.25455600e-01	1.94525130e-05	2.31460020e-05	6.69134170e-05	0.00000000e+00
17.64           	7.41501330e-02	1.92970920e-05	2.28642720e-05	7.84574530e-05	0.00000000e+00
17.645          	2.46238410e-01	1.91416840e-05	2.25828460e-05	1.44637040e-04	0.00000000e+00
17.65           	2.53319260e-01	1.89862900e-05	2.23017250e-05	1.17957070e-04	0.00000000e+00
17.655          	1.30434230e-01	1.88309130e-05	2.20209130e-05	1.46970170e-04	0.00000000e+00
17.66           	1.08816630e-01	1.86755540e-05	2.17404130e-05	1.92969470e-04	0.00000000e+00
17.665          	1.88128030e-01	1.85202150e-05	2.14602270e-05	1.54665150e-04	0.00000000e+00
17.67           	3.57571890e-01	1.83649000e-05	2.11803620e-05	1.43292400e-04	0.00000000e+00
17.675          	6.71569720e-02	1.82096060e-05	2.09008140e-05	1.72901140e-04	0.00000000e+00
17.68           	1.12176590e-01	1.80543390e-05	2.06215910e-05	2.30910580e-04	0.00000000e+00
17.685          	1.43043040e-01	1.78991030e-05	2.03426990e-05	1.53672400e-04	0.00000000e+00
17.69           	1.35628950e-01	1.77438940e-05	2.00641340e-05	1.49221320e-04	0.00000000e+00
17.695          	1.98902620e-01	1.75887190e-05	1.97859040e-05	1.34066760e-04	0.00000000e+00
17.7            	1.38059540e-01	1.74335800e-05	1.95080130e-05	1.76972430e-04	0.00000000e+00
17.705          	1.40623920e-01	1.72784770e-05	1.92304610e-05	1.55336290e-04	0.00000000e+00
17.71           	7.51940890e-02	1.71234110e-05	1.89532530e-05	1.57506240e-04	0.00000000e+00
17.715          	1.26607940e-01	1.69683860e-05	1.86763900e-05	1.47360100e-04	0.00000000e+00
17.72           	1.89347530e-01	1.68134010e-05	1.83998750e-05	1.65127560e-04	0.00000000e+00
17.725          	1.39238970e-01	1.66584650e-05	1.81237160e-05	1.72981200e-04	0.00000000e+00
17.73           	3.24275260e-01	1.65035720e-05	1.78479100e-05	1.64050190e-04	0.00000000e+00
17.735          	2.80808050e-01	1.63487280e-05	1.75724640e-05	1.99613940e-04	0.00000000e+00
17.74           	1.34434710e-01	1.61939380e-05	1.72973820e-05	2.03519340e-04	0.00000000e+00
17.745          	1.21672110e-01	1.60391970e-05	1.70226620e-05	1.85613990e-04	0.00000000e+00
17.75           	8.80013570e-02	1.58845110e-05	1.67483110e-05	1.78672300e-04	0.00000000e+00
17.755          	1.63123510e-01	1.57298840e-05	1.64743330e-05	2.41660530e-04	0.00000000e+00
17.76           	1.16241070e-01	1.55753130e-05	1.62007260e-05	1.49493900e-04	0.00000000e+00
17.765          	1.10332710e-01	1.54208020e-05	1.59274970e-05	1.38641500e-04	0.00000000e+00
17.77           	1.34797050e-01	1.52663550e-05	1.56546480e-05	1.56240060e-04	0.00000000e+00
17.775          	2.21410470e-01	1.51119740e-05	1.53821850e-05	1.37986240e-04	0.00000000e+00
17.78           	1.48358350e-01	1.49576580e-05	1.51101060e-05	1.38956930e-04	0.00000000e+00
17.785          	1.68221130e-01	1.48034090e-05	1.48384150e-05	1.59743970e-04	0.00000000e+00
17.79           	1.89217760e-01	1.46492310e-05	1.45671160e-05	1.03885620e-04	0.00000000e+00
17.795          	1.51703120e-01	1.44951240e-05	1.42962110e-05	9.57093510e-05	0.00000000e+00
17.8            	1.36442600e-01	1.43410910e-05	1.40257040e-05	1.55102990e-04	0.00000000e+00
17.805          	1.41159960e-01	1.41871370e-05	1.37556000e-05	9.77452550e-05	0.00000000e+00
17.81           	8.59092950e-02	1.40332580e-05	1.34858960e-05	8.41843300e-05	0.00000000e+00
17.815          	6.19600080e-02	1.38794590e-05	1.32166000e-05	7.74124280e-05	0.00000000e+00
17.82           	1.98728620e-01	1.37257450e-05	1.29477150e-05	1.19062010e-04	0.00000000e+00
17.825          	1.92850960e-01	1.35721130e-05	1.26792420e-05	9.41018280e-05	0.00000000e+00
17.83           	2.32326750e-01	1.34185640e-05	1.24111810e-05	1.18778700e-04	0.00000000e+00
17.835          	1.44420150e-01	1.32651050e-05	1.21435390e-05	1.22577910e-04	0.00000000e+00
17.84           	1.62757020e-01	1.31117340e-05	1.18763180e-05	7.64213640e-05	0.00000000e+00
17.845          	1.78960470e-01	1.29584570e-05	1.16095220e-05	4.80460930e-05	0.00000000e+00
17.85           	7.81065760e-02	1.28052710e-05	1.13431490e-05	7.88010700e-05	0.00000000e+00
17.855          	1.24819980e-01	1.26521800e-05	1.10772070e-05	6.83044720e-05	0.00000000e+00
17.86           	1.19764900e-01	1.24991880e-05	1.08116970e-05	9.53446740e-05	0.00000000e+00
17.865          	1.92414370e-01	1.23462920e-05	1.05466200e-05	1.07934790e-04	0.00000000e+00
17.87           	3.89772500e-01	1.21935000e-05	1.02819830e-05	7.32182700e-05	0.00000000e+00
17.875          	8.07153070e-02	1.20408070e-05	1.00177830e-05	5.57469950e-05	0.00000000e+00
17.88           	9.36837990e-02	1.18882200e-05	9.75402670e-06	1.43948530e-04	0.00000000e+00
17.885          	1.13516570e-01	1.17357390e-05	9.49071610e-06	1.31225250e-04	0.00000000e+00
17.89           	1.71519370e-01	1.15833660e-05	9.22785360e-06	8.16031610e-05	0.00000000e+00
17.895          	1.93869650e-01	1.14311050e-05	8.96544310e-06	8.05716050e-05	0.00000000e+00
17.9            	4.15577020e-01	1.12789540e-05	8.70348530e-06	9.06357680e-05	0.00000000e+00
17.905          	1.06864960e-01	1.11269170e-05	8.44198340e-06	7.15710880e-05	0.00000000e+00
17.91           	9.55159110e-02	1.09749930e-05	8.18093920e-06	1.11198600e-04	0.00000000e+00
17.915          	1.33340180e-01	1.08231890e-05	7.92035810e-06	1.14590130e-04	0.00000000e+00
17.92           	1.95126120e-01	1.06715040e-05	7.66024050e-06	1.06746470e-04	0.00000000e+00
17.925          	1.23318210e-01	1.05199380e-05	7.40058850e-06	1.26663100e-04	0.00000000e+00
17.93           	1.59334530e-01	1.03684960e-05	7.14140730e-06	7.55299910e-05	0.00000000e+00
17.935          	2.64782620e-01	1.02171770e-05	6.88269660e-06	7.74076490e-05	0.00000000e+00
17.94           	1.75306360e-01	1.00659860e-05	6.62446160e-06	5.76843860e-05	0.00000000e+00
17.945          	6.80459310e-02	9.91492170e-06	6.36670230e-06	1.14022240e-04	0.00000000e+00
17.95           	5.02628020e-02	9.76398740e-06	6.10942300e-06	6.80765680e-05	0.00000000e+00
17.955          	2.47853260e-01	9.61318620e-06	5.85262660e-06	7.55272280e-05	0.00000000e+00
17.96           	1.60194200e-01	9.46251620e-06	5.59631350e-06	6.22798690e-05	0.00000000e+00
17.965          	8.25292740e-02	9.31198200e-06	5.34048780e-06	7.74789100e-05	0.00000000e+00
17.97           	7.16453250e-02	9.16158600e-06	5.08515250e-06	7.38721890e-05	0.00000000e+00
17.975          	3.22946520e-01	9.01132780e-06	4.83030880e-06	6.14808020e-05	0.00000000e+00
17.98           	2.20536540e-01	8.86120970e-06	4.57595940e-06	8.38179190e-05	0.00000000e+00
17.985          	1.11505350e-01	8.71123360e-06	4.32210700e-06	6.73727220e-05	0.00000000e+00
17.99           	1.06749340e-01	8.56140130e-06	4.06875390e-06	4.70180370e-05	0.00000000e+00
17.995          	1.99959920e-01	8.41171340e-06	3.81590220e-06	8.38680510e-05	0.00000000e+00
18              	1.20243960e-01	8.26217470e-06	3.56355560e-06	9.32937690e-05	0.00000000e+00
18.005          	1.40562460e-01	8.11278450e-06	3.31171550e-06	1.29951930e-04	0.00000000e+00
18.01           	8.40687250e-02	7.96354480e-06	3.06038430e-06	5.83710050e-05	0.00000000e+00
18.015          	1.60283820e-01	7.81445640e-06	2.80956410e-06	7.00242480e-05	0.00000000e+00
18.02           	1.14166220e-01	7.66552290e-06	2.55925800e-06	7.25926650e-05	0.00000000e+00
18.025          	2.97307170e-01	7.51674530e-06	2.30946820e-06	9.15584090e-05	0.00000000e+00
18.03           	1.83020470e-01	7.36812540e-06	2.06019690e-06	7.45398720e-05	0.00000000e+00
18.035          	1.56134670e-01	7.21966570e-06	1.81144680e-06	1.15776190e-04	0.00000000e+00
18.04           	1.33106760e-01	7.07136520e-06	1.56321930e-06	9.47282810e-05	0.00000000e+00
18.045          	2.12673690e-01	6.92322870e-06	1.31551760e-06	1.17358770e-04	0.00000000e+00
18.05           	1.09445940e-01	6.77525490e-06	1.06834340e-06	1.40383840e-04	0.00000000e+00
18.055          	1.33348780e-01	6.62744840e-06	8.21699370e-07	1.13260220e-04	0.00000000e+00
18.06           	3.10264830e-01	6.47951720e-06	3.02433710e-07	1.07759930e-04	0.00000000e+00
18.065          	4.29614800e-01	6.33175620e-06	1.39253360e-07	6.77780700e-05	0.00000000e+00
18.07           	1.36525890e-01	6.18426030e-06	8.51610270e-08	1.42226820e-04	0.00000000e+00
18.075          	2.12799280e-01	6.03706360e-06	2.33826450e-07	6.98257310e-05	0.00000000e+00
18.08           	9.99189720e-02	5.89017700e-06	3.93054960e-07	6.85063010e-05	0.00000000e+00
18.085          	2.05622100e-01	5.74360240e-06	5.52089780e-07	9.27012330e-05	0.00000000e+00
18.09           	2.04296200e-01	5.59734000e-06	7.10930910e-07	9.28650390e-05	0.00000000e+00
18.095          	1.34637840e-01	5.45139220e-06	8.69578440e-07	5.89945980e-05	0.00000000e+00
18.1            	9.61778100e-02	5.30575630e-06	1.02803250e-06	5.78497680e-05	0.00000000e+00
18.105          	6.92627110e-02	5.16003920e-06	1.52803320e-06	7.79425640e-05	0.00000000e+00
18.11           	1.92355300e-01	5.01431510e-06	1.85158940e-06	8.63870650e-05	0.00000000e+00
18.115          	1.52190330e-01	4.86867840e-06	2.11594010e-06	6.73934980e-05	0.00000000e+00
18.12           	3.57503920e-01	4.72318450e-06	2.36017980e-06	5.24337410e-05	0.00000000e+00
18.125          	1.41853180e-01	4.57786130e-06	2.59837010e-06	7.19264780e-05	0.00000000e+00
18.13           	1.29561090e-01	4.43271970e-06	2.83648910e-06	7.29747370e-05	0.00000000e+00
18.135          	1.52885570e-01	4.28776790e-06	3.07333560e-06	1.13354880e-04	0.00000000e+00
18.14           	1.77363200e-01	4.14300800e-06	3.30938150e-06	9.39575730e-05	0.00000000e+00
18.145          	1.24856350e-01	3.99844190e-06	3.54478270e-06	1.13303210e-04	0.00000000e+00
18.15           	1.87112530e-01	3.85407310e-06	3.77959080e-06	1.17972870e-04	0.00000000e+00
18.155          	2.54826820e-01	3.70990190e-06	4.01382050e-06	9.84449450e-05	0.00000000e+00
18.16           	1.13773890e-01	3.56592960e-06	4.24747530e-06	1.01350420e-04	0.00000000e+00
18.165          	1.32189340e-01	3.42215880e-06	4.48055600e-06	1.07322730e-04	0.00000000e+00
18.17           	1.28499400e-01	3.27859130e-06	4.71306150e-06	1.10396040e-04	0.00000000e+00
18.175          	3.47044510e-01	3.13522710e-06	4.94498860e-06	9.43487790e-05	0.00000000e+00
18.18           	1.33838850e-01	2.99206920e-06	5.17633700e-06	9.43026690e-05	0.00000000e+00
18.185          	3.54615920e-01	2.84911790e-06	5.40710310e-06	1.15854550e-04	0.00000000e+00
18.19           	3.73910390e-01	2.70637550e-06	5.63728620e-06	8.68965130e-05	0.00000000e+00
18.195          	1.80128260e-01	2.56384380e-06	5.86688480e-06	8.26247470e-05	0.00000000e+00
18.2            	1.78816880e-01	2.42152310e-06	6.09589500e-06	1.12682760e-04	0.00000000e+00
18.205          	2.53003840e-01	2.27941580e-06	6.32431650e-06	1.47324890e-04	0.00000000e+00
18.21           	9.56771360e-02	2.13791110e-06	6.55214720e-06	1.18252300e-04	0.00000000e+00
18.215          	1.91047470e-01	2.00436330e-06	6.77962590e-06	1.48794430e-04	0.00000000e+00
18.22           	5.15193030e-01	1.87192210e-06	7.00759790e-06	1.31800870e-04	0.00000000e+00
18.225          	1.46990550e-01	1.75213340e-06	7.23496990e-06	1.23994640e-04	0.00000000e+00
18.23           	1.76744930e-01	1.63987700e-06	7.46174030e-06	1.70437560e-04	0.00000000e+00
18.235          	1.45210070e-01	1.53661710e-06	7.68790760e-06	1.53642360e-04	0.00000000e+00
18.24           	2.70412490e-01	1.44285700e-06	7.91346900e-06	1.21360500e-04	0.00000000e+00
18.245          	4.03659680e-01	1.35873700e-06	8.13842420e-06	1.38239990e-04	0.00000000e+00
18.25           	1.57496880e-01	1.28440200e-06	8.36277210e-06	1.34638580e-04	0.00000000e+00
18.255          	5.51051250e-02	1.22001080e-06	8.58650810e-06	1.34501490e-04	0.00000000e+00
18.26           	2.22475810e-01	1.16564610e-06	8.80963360e-06	1.50483410e-04	0.00000000e+00
18.265          	3.48679210e-01	1.12140690e-06	9.03214360e-06	9.89181410e-05	0.00000000e+00
18.27           	4.74883370e-01	1.08726000e-06	9.25403980e-06	9.32178050e-05	0.00000000e+00
18.275          	2.58360800e-01	1.06323310e-06	9.47531700e-06	1.18139840e-04	0.00000000e+00
18.28           	3.19062790e-01	1.04945510e-06	9.69597700e-06	1.56046220e-04	0.00000000e+00
18.285          	2.04726560e-01	1.04576060e-06	9.91601450e-06	2.20230620e-04	0.00000000e+00
18.29           	3.92989140e-01	1.05182820e-06	1.01354300e-05	1.72700670e-04	0.00000000e+00
18.295          	1.13058060e-01	1.06758250e-06	1.03542220e-05	2.12664080e-04	0.00000000e+00
18.3            	1.80297480e-01	1.09272470e-06	1.05723890e-05	1.86031360e-04	0.00000000e+00
18.305          	1.10983540e-01	1.12721960e-06	1.07899290e-05	1.59238900e-04	0.00000000e+00
18.31           	1.31784520e-01	1.17071590e-06	1.10068390e-05	1.17394380e-04	0.00000000e+00
18.315          	1.02906720e-01	1.22305350e-06	1.12231190e-05	1.15812870e-04	0.00000000e+00
18.32           	1.56318580e-01	1.28399300e-06	1.14387670e-05	1.19015990e-04	0.00000000e+00
18.325          	1.51642890e-01	1.35321180e-06	1.16537800e-05	1.24370610e-04	0.00000000e+00
18.33           	1.84188370e-01	1.43042260e-06	1.18681580e-05	1.23422360e-04	0.00000000e+00
18.335          	1.58181870e-01	1.51535640e-06	1.20819010e-05	7.62743440e-05	0.00000000e+00
18.34           	1.87561540e-01	1.60759380e-06	1.22950050e-05	1.24042370e-04	0.00000000e+00
18.345          	2.10045110e-01	1.70679610e-06	1.25074690e-05	8.87468080e-05	0.00000000e+00
18.35           	1.24982370e-01	1.81245740e-06	1.27192910e-05	5.98484120e-05	0.00000000e+00
18.355          	1.03879110e-01	1.92412860e-06	1.29304700e-05	9.27721730e-05	0.00000000e+00
18.36           	2.13126870e-01	2.04120010e-06	1.31410020e-05	6.91076550e-05	0.00000000e+00
18.365          	2.68401880e-01	2.16300390e-06	1.33508920e-05	5.82559750e-05	0.00000000e+00
18.37           	1.54208460e-01	2.28930700e-06	1.35601340e-05	9.50418020e-05	0.00000000e+00
18.375          	2.89852220e-01	2.41986500e-06	1.37687240e-05	8.77917990e-05	0.00000000e+00
18.38           	1.13753820e-01	2.55287110e-06	1.39766680e-05	1.11254740e-04	0.00000000e+00
18.385          	1.24629720e-01	2.68610880e-06	1.41839560e-05	7.76315280e-05	0.00000000e+00
18.39           	2.65226710e-01	2.81908320e-06	1.43905950e-05	9.59513000e-05	0.00000000e+00
18.395          	1.35805510e-01	2.95179250e-06	1.45965780e-05	9.19874880e-05	0.00000000e+00
18.4            	1.73824110e-01	3.08423570e-06	1.48019040e-05	9.38990220e-05	0.00000000e+00
18.405          	6.48951500e-02	3.21641120e-06	1.50065720e-05	9.54388480e-05	0.00000000e+00
18.41           	1.89970440e-01	3.34831850e-06	1.52105830e-05	6.66930010e-05	0.00000000e+00
18.415          	1.41414890e-01	3.47995580e-06	1.54139340e-05	9.28135320e-05	0.00000000e+00
18.42           	4.31901790e-01	3.61132170e-06	1.56166210e-05	5.90120760e-05	0.00000000e+00
18.425          	2.44508280e-01	3.74241540e-06	1.58186470e-05	7.79916970e-05	0.00000000e+00
18.43           	2.16670380e-01	3.87323600e-06	1.60200110e-05	8.59495710e-05	0.00000000e+00
18.435          	1.02748300e-01	4.00378130e-06	1.62207060e-05	1.33550580e-04	0.00000000e+00
18.44           	9.61970350e-02	4.13405120e-06	1.64207380e-05	1.26745550e-04	0.00000000e+00
18.445          	2.37917080e-01	4.26404340e-06	1.66200980e-05	9.74345200e-05	0.00000000e+00
18.45           	1.56671240e-01	4.39384140e-06	1.68187910e-05	7.50305600e-05	0.00000000e+00
18.455          	3.96143650e-01	4.52349500e-06	1.70168130e-05	5.08024920e-05	0.00000000e+00
18.46           	1.09512700e-01	4.65286740e-06	1.72141640e-05	6.50713100e-05	0.00000000e+00
18.465          	8.38139820e-02	4.78195800e-06	1.74108430e-05	8.57614140e-05	0.00000000e+00
18.47           	1.63741550e-01	4.91076440e-06	1.76068460e-05	8.99399360e-05	0.00000000e+00
18.475          	1.87806960e-01	5.03928630e-06	1.78021740e-05	8.72752590e-05	0.00000000e+00
18.48           	1.14205160e-01	5.16752250e-06	1.79968250e-05	6.62817590e-05	0.00000000e+00
18.485          	8.17097160e-02	5.29547190e-06	1.81907990e-05	1.64208970e-04	0.00000000e+00
18.49           	1.64296320e-01	5.42313370e-06	1.83840970e-05	1.20158040e-04	0.00000000e+00
18.495          	1.84333390e-01	5.55050590e-06	1.85767130e-05	1.08402940e-04	0.00000000e+00
18.5            	1.09598420e-01	5.67758710e-06	1.87686450e-05	9.01915670e-05	0.00000000e+00
18.505          	1.00502690e-01	5.80437720e-06	1.89598960e-05	6.81634000e-05	0.00000000e+00
18.51           	8.57271040e-02	5.93087480e-06	1.91504640e-05	1.38890810e-04	0.00000000e+00
18.515          	1.83658010e-01	6.05707880e-06	1.93403470e-05	1.22621830e-04	0.00000000e+00
18.52           	1.69054080e-01	6.18298800e-06	1.95295450e-05	1.48799330e-04	0.00000000e+00
18.525          	5.41796250e-01	6.30860130e-06	1.97180570e-05	1.38274000e-04	0.00000000e+00
18.53           	1.13195890e-01	6.43391760e-06	1.99058810e-05	1.67549040e-04	0.00000000e+00
18.535          	2.73626580e-01	6.55893580e-06	2.00930160e-05	1.29885540e-04	0.00000000e+00
18.54           	4.31225540e-01	6.68365560e-06	2.02794630e-05	1.11663720e-04	0.00000000e+00
18.545          	1.16915360e-01	6.80807400e-06	2.04652160e-05	1.34806490e-04	0.00000000e+00
18.55           	2.80006320e-01	6.93219140e-06	2.06502780e-05	1.29748470e-04	0.00000000e+00
18.555          	9.78680780e-02	7.05600730e-06	2.08346470e-05	1.40138580e-04	0.00000000e+00
18.56           	1.09090210e-01	7.17954620e-06	2.10183250e-05	1.40029790e-04	0.00000000e+00
18.565          	4.15010430e-01	7.30278000e-06	2.12013070e-05	1.31213810e-04	0.00000000e+00
18.57           	3.15496290e-01	7.42570740e-06	2.13835890e-05	1.15044280e-04	0.00000000e+00
18.575          	2.04431300e-01	7.54832940e-06	2.15651790e-05	1.26899580e-04	0.00000000e+00
18.58           	1.23380000e-01	7.67064260e-06	2.17460670e-05	1.27718510e-04	0.00000000e+00
18.585          	7.75145920e-02	7.79264760e-06	2.19262590e-05	9.14145870e-05	0.00000000e+00
18.59           	1.65519210e-01	7.91434300e-06	2.21057510e-05	8.98463270e-05	0.00000000e+00
18.595          	1.69054390e-01	8.03572870e-06	2.22845450e-05	9.18840990e-05	0.00000000e+00
18.6            	2.44009720e-01	8.15680130e-06	2.24626340e-05	6.89712850e-05	0.00000000e+00
18.605          	2.14958100e-01	8.27756240e-06	2.26400240e-05	7.95320680e-05	0.00000000e+00
18.61           	7.94187300e-02	8.39800860e-06	2.28167070e-05	7.87964470e-05	0.00000000e+00
18.615          	1.49208070e-01	8.51814140e-06	2.29926900e-05	6.11458530e-05	0.00000000e+00
18.62           	9.88285980e-02	8.63795730e-06	2.31679640e-05	8.13717720e-05	0.00000000e+00
18.625          	3.16073640e-01	8.75745690e-06	2.33425340e-05	7.51101210e-05	0.00000000e+00
18.63           	1.59819450e-01	8.87663920e-06	2.35163980e-05	6.59934110e-05	0.00000000e+00
18.635          	1.80205180e-01	8.99550300e-06	2.36895550e-05	5.67918560e-05	0.00000000e+00
18.64           	9.95980710e-02	9.11404730e-06	2.38620040e-05	8.15882700e-05	0.00000000e+00
18.645          	1.32629260e-01	9.23227210e-06	2.40337470e-05	1.02667890e-04	0.00000000e+00
18.65           	3.07479300e-01	9.35017500e-06	2.42047790e-05	1.00687490e-04	0.00000000e+00
18.655          	1.47567820e-01	9.46775520e-06	2.43750990e-05	6.37052220e-05	0.00000000e+00
18.66           	1.14918140e-01	9.58501120e-06	2.45447050e-05	8.92290730e-05	0.00000000e+00
18.665          	1.18346960e-01	9.70194360e-06	2.47136020e-05	7.03348110e-05	0.00000000e+00
18.67           	1.41682070e-01	9.81855110e-06	2.48817860e-05	7.16798790e-05	0.00000000e+00
18.675          	1.28929500e-01	9.93483380e-06	2.50492600e-05	9.60016280e-05	0.00000000e+00
18.68           	1.31059690e-01	1.00507880e-05	2.52160160e-05	7.42807170e-05	0.00000000e+00
18.685          	1.45286480e-01	1.01664160e-05	2.53820610e-05	5.59423590e-05	0.00000000e+00
18.69           	1.87681800e-01	1.02817130e-05	2.55473860e-05	7.55707840e-05	0.00000000e+00
18.695          	1.10776110e-01	1.03966830e-05	2.57120000e-05	9.27201820e-05	0.00000000e+00
18.7            	1.56311380e-01	1.05113200e-05	2.58758920e-05	7.02165250e-05	0.00000000e+00
18.705          	9.85431060e-02	1.06256270e-05	2.60390690e-05	8.13580080e-05	0.00000000e+00
18.71           	4.15428700e-01	1.07396020e-05	2.62015310e-05	1.00128820e-04	0.00000000e+00
18.715          	1.40680270e-01	1.08532440e-05	2.63632740e-05	7.17249980e-05	0.00000000e+00
18.72           	2.19959060e-01	1.09665510e-05	2.65242920e-05	6.98704460e-05	0.00000000e+00
18.725          	1.08143210e-01	1.10795250e-05	2.66845970e-05	5.71531500e-05	0.00000000e+00
18.73           	1.30434460e-01	1.11921610e-05	2.68441760e-05	5.93817440e-05	0.00000000e+00
18.735          	1.50405540e-01	1.13044620e-05	2.70030370e-05	6.36243430e-05	0.00000000e+00
18.74           	1.13813390e-01	1.14164260e-05	2.71611790e-05	1.20274180e-04	0.00000000e+00
18.745          	1.05431620e-01	1.15280520e-05	2.73185980e-05	1.01428020e-04	0.00000000e+00
18.75           	1.70050810e-01	1.16393390e-05	2.74752940e-05	6.73398220e-05	0.00000000e+00
18.755          	1.69964480e-01	1.17502850e-05	2.76312630e-05	8.89413900e-05	0.00000000e+00
18.76           	3.19949770e-01	1.18608910e-05	2.77865100e-05	1.22921350e-04	0.00000000e+00
18.765          	1.51838660e-01	1.19711570e-05	2.79410380e-05	9.29956190e-05	0.00000000e+00
18.77           	1.56536140e-01	1.20810800e-05	2.80948390e-05	1.00614300e-04	0.00000000e+00
18.775          	3.70550430e-01	1.21906590e-05	2.82479110e-05	1.14325700e-04	0.00000000e+00
18.78           	1.11005450e-01	1.22998970e-05	2.84002630e-05	1.27820770e-04	0.00000000e+00
18.785          	1.12612680e-01	1.24087890e-05	2.85518880e-05	8.61677440e-05	0.00000000e+00
18.79           	5.84342660e-02	1.25173360e-05	2.87027860e-05	6.22004330e-05	0.00000000e+00
18.795          	2.20919480e-01	1.26255350e-05	2.88529530e-05	7.51171310e-05	0.00000000e+00
18.8            	1.26491430e-01	1.27333900e-05	2.90023990e-05	7.68507090e-05	0.00000000e+00
18.805          	7.60331600e-02	1.28408970e-05	2.91511150e-05	4.42814210e-05	0.00000000e+00
18.81           	1.32617440e-01	1.29480540e-05	2.92991000e-05	4.59647770e-05	0.00000000e+00
18.815          	9.07022900e-02	1.30548630e-05	2.94463580e-05	7.39892230e-05	0.00000000e+00
18.82           	2.70837660e-01	1.31613240e-05	2.95928930e-05	8.93229750e-05	0.00000000e+00
18.825          	3.87654240e-01	1.32674340e-05	2.97386950e-05	1.03534700e-04	0.00000000e+00
18.83           	2.94665050e-01	1.33731920e-05	2.98837680e-05	7.95206640e-05	0.00000000e+00
18.835          	6.83341820e-02	1.34785980e-05	3.00281110e-05	8.00663800e-05	0.00000000e+00
18.84           	1.05038830e-01	1.35836510e-05	3.01717190e-05	6.35175330e-05	0.00000000e+00
18.845          	2.00505540e-01	1.36883510e-05	3.03146000e-05	9.73250760e-05	0.00000000e+00
18.85           	1.77617890e-01	1.37926990e-05	3.04567550e-05	1.17023170e-04	0.00000000e+00
18.855          	3.83171440e-01	1.38966910e-05	3.05981760e-05	1.03722180e-04	0.00000000e+00
18.86           	1.35585760e-01	1.40003280e-05	3.07388650e-05	6.72512930e-05	0.00000000e+00
18.865          	2.06671840e-01	1.41036070e-05	3.08788190e-05	8.12283030e-05	0.00000000e+00
18.87           	1.66769190e-01	1.42065320e-05	3.10180470e-05	6.40583690e-05	0.00000000e+00
18.875          	1.78109500e-01	1.43090980e-05	3.11565370e-05	8.64077470e-05	0.00000000e+00
18.88           	1.11542240e-01	1.44113080e-05	3.12943010e-05	1.53430420e-04	0.00000000e+00
18.885          	1.42309340e-01	1.45131570e-05	3.14313270e-05	1.15392420e-04	0.00000000e+00
18.89           	1.34346810e-01	1.46146480e-05	3.15676220e-05	1.19457330e-04	0.00000000e+00
18.895          	4.51849420e-01	1.47157790e-05	3.17031840e-05	1.21459170e-04	0.00000000e+00
18.9            	1.76611430e-01	1.48165490e-05	3.18380140e-05	1.42136780e-04	0.00000000e+00
18.905          	1.71180370e-01	1.49169610e-05	3.19721140e-05	9.95141670e-05	0.00000000e+00
18.91           	1.72922490e-01	1.50170070e-05	3.21054740e-05	1.14221440e-04	0.00000000e+00
18.915          	2.45992440e-01	1.51166940e-05	3.22381070e-05	1.30869470e-04	0.00000000e+00
18.92           	1.17740740e-01	1.52160170e-05	3.23700030e-05	8.06454120e-05	0.00000000e+00
18.925          	6.55885180e-02	1.53149740e-05	3.25011610e-05	1.04527340e-04	0.00000000e+00
18.93           	3.78240710e-01	1.54135700e-05	3.26315910e-05	9.77213960e-05	0.00000000e+00
18.935          	1.58638260e-01	1.55117990e-05	3.27612810e-05	1.08713260e-04	0.00000000e+00
18.94           	1.15142630e-01	1.56096650e-05	3.28902430e-05	7.91938930e-05	0.00000000e+00
18.945          	1.57262240e-01	1.57071630e-05	3.30184640e-05	1.02496940e-04	0.00000000e+00
18.95           	3.78632700e-01	1.58042960e-05	3.31459580e-05	5.24901080e-05	0.00000000e+00
18.955          	1.61803030e-01	1.59010600e-05	3.32727100e-05	9.25335340e-05	0.00000000e+00
18.96           	1.56221110e-01	1.59974580e-05	3.33987300e-05	5.72599640e-05	0.00000000e+00
18.965          	3.48848390e-01	1.60934890e-05	3.35240200e-05	6.52679550e-05	0.00000000e+00
18.97           	3.21659640e-01	1.61891490e-05	3.36485680e-05	6.42770630e-05	0.00000000e+00
18.975          	9.52522610e-02	1.62844420e-05	3.37723880e-05	9.10954030e-05	0.00000000e+00
18.98           	7.05699860e-02	1.63793630e-05	3.38954670e-05	6.08517770e-05	0.00000000e+00
18.985          	8.33355770e-02	1.64739160e-05	3.40178170e-05	9.74864100e-05	0.00000000e+00
18.99           	1.56336320e-01	1.65680970e-05	3.41394310e-05	6.63863040e-05	0.00000000e+00
18.995          	1.71470680e-01	1.66619070e-05	3.42603090e-05	5.73419240e-05	0.00000000e+00
19              	1.09827290e-01	1.67553430e-05	3.43804480e-05	1.24871330e-04	0.00000000e+00
19.005          	7.38948470e-02	1.68484100e-05	3.44998590e-05	7.26146230e-05	0.00000000e+00
19.01           	8.91727760e-02	1.69411040e-05	3.46185330e-05	1.32460900e-04	0.00000000e+00
19.015          	1.13970770e-01	1.70334240e-05	3.47364730e-05	1.27132720e-04	0.00000000e+00
19.02           	1.08909480e-01	1.71253670e-05	3.48536730e-05	8.57408800e-05	0.00000000e+00
19.025          	1.76330070e-01	1.72169400e-05	3.49701460e-05	1.00827420e-04	0.00000000e+00
19.03           	7.95827700e-02	1.73081360e-05	3.50858780e-05	1.27167990e-04	0.00000000e+00
19.035          	1.21043400e-01	1.73989590e-05	3.52008820e-05	8.91282490e-05	0.00000000e+00
19.04           	3.37647490e-01	1.74894060e-05	3.53151500e-05	1.31097210e-04	0.00000000e+00
19.045          	7.66391790e-02	1.75794760e-05	3.54286840e-05	1.29027890e-04	0.00000000e+00
19.05           	1.12317870e-01	1.76691690e-05	3.55414830e-05	1.03774640e-04	0.00000000e+00
19.055          	3.58490920e-01	1.77584860e-05	3.56535480e-05	1.73842610e-04	0.00000000e+00
19.06           	1.27051380e-01	1.78474250e-05	3.57648800e-05	1.43434790e-04	0.00000000e+00
19.065          	2.39343170e-01	1.79359840e-05	3.58754730e-05	1.66003790e-04	0.00000000e+00
19.07           	1.68645870e-01	1.80241660e-05	3.59853360e-05	1.40391110e-04	0.00000000e+00
19.075          	1.48057040e-01	1.81119710e-05	3.60944670e-05	1.04313850e-04	0.00000000e+00
19.08           	2.07261160e-01	1.81993960e-05	3.62028660e-05	1.23259680e-04	0.00000000e+00
19.085          	2.32466790e-01	1.82864440e-05	3.63105360e-05	6.09857340e-05	0.00000000e+00
19.09           	1.84612150e-01	1.83731080e-05	3.64174660e-05	7.52265150e-05	0.00000000e+00
19.095          	6.82325870e-02	1.84593930e-05	3.65236660e-05	6.01730400e-05	0.00000000e+00
19.1            	1.89801340e-01	1.85452980e-05	3.66291340e-05	6.66142890e-05	0.00000000e+00
19.105          	1.00680850e-01	1.86308240e-05	3.67338750e-05	9.06374460e-05	0.00000000e+00
19.11           	1.79239240e-01	1.87159650e-05	3.68378770e-05	1.43395630e-04	0.00000000e+00
19.115          	2.36521830e-01	1.88007280e-05	3.69411540e-05	9.96328500e-05	0.00000000e+00
19.12           	1.46801780e-01	1.88851070e-05	3.70436980e-05	5.52062840e-05	0.00000000e+00
19.125          	8.59392170e-02	1.89691010e-05	3.71455050e-05	6.43708170e-05	0.00000000e+00
19.13           	1.97559500e-01	1.90527140e-05	3.72465850e-05	8.06668530e-05	0.00000000e+00
19.135          	1.98613860e-01	1.91359460e-05	3.73469400e-05	1.10840020e-04	0.00000000e+00
19.14           	1.14339930e-01	1.92187930e-05	3.74465620e-05	8.89919780e-05	0.00000000e+00
19.145          	1.74086870e-01	1.93012540e-05	3.75454490e-05	6.86641790e-05	0.00000000e+00
19.15           	1.11996400e-01	1.93833340e-05	3.76436140e-05	5.93271990e-05	0.00000000e+00
19.155          	7.77930940e-02	1.94650270e-05	3.77410430e-05	5.96638390e-05	0.00000000e+00
19.16           	2.06095250e-01	1.95463380e-05	3.78377500e-05	8.70132320e-05	0.00000000e+00
19.165          	1.66841930e-01	1.96272600e-05	3.79337220e-05	7.24210290e-05	0.00000000e+00
19.17           	1.83083820e-01	1.97078010e-05	3.80289740e-05	8.75387780e-05	0.00000000e+00
19.175          	1.10381370e-01	1.97879540e-05	3.81234950e-05	8.36729840e-05	0.00000000e+00
19.18           	1.12004800e-01	1.98677210e-05	3.82172880e-05	5.66105580e-05	0.00000000e+00
19.185          	9.85689380e-02	1.99471020e-05	3.83103540e-05	7.13452650e-05	0.00000000e+00
19.19           	4.36550920e-02	2.00260960e-05	3.84026940e-05	1.05815990e-04	0.00000000e+00
19.195          	2.10709700e-01	2.01047040e-05	3.84943070e-05	9.15029560e-05	0.00000000e+00
19.2            	1.19651580e-01	2.01829240e-05	3.85851950e-05	7.16974300e-05	0.00000000e+00
19.205          	9.85686920e-02	2.02607570e-05	3.86753580e-05	9.81216770e-05	0.00000000e+00
19.21           	1.91879590e-01	2.03381990e-05	3.87647910e-05	6.65948920e-05	0.00000000e+00
19.215          	2.59760440e-01	2.04152580e-05	3.88535080e-05	1.43492990e-04	0.00000000e+00
19.22           	8.78840110e-02	2.04919280e-05	3.89414980e-05	1.09122800e-04	0.00000000e+00
19.225          	7.99763090e-02	2.05682090e-05	3.90287650e-05	1.25317750e-04	0.00000000e+00
19.23           	2.69073350e-01	2.06440990e-05	3.91153040e-05	1.36819340e-04	0.00000000e+00
19.235          	2.82125180e-01	2.07196030e-05	3.92011280e-05	1.32092480e-04	0.00000000e+00
19.24           	1.25694110e-01	2.07947180e-05	3.92862280e-05	9.09473150e-05	0.00000000e+00
19.245          	1.87446360e-01	2.08694410e-05	3.93706010e-05	9.99264090e-05	0.00000000e+00
19.25           	2.81143000e-01	2.09437780e-05	3.94542610e-05	9.32568440e-05	0.00000000e+00
19.255          	1.65804330e-01	2.10177250e-05	3.95371990e-05	1.32454090e-04	0.00000000e+00
19.26           	1.41170100e-01	2.10912810e-05	3.96194160e-05	8.02420320e-05	0.00000000e+00
19.265          	3.94305700e-01	2.11644440e-05	3.97009080e-05	6.98944400e-05	0.00000000e+00
19.27           	1.66527440e-01	2.12372220e-05	3.97816890e-05	6.62879220e-05	0.00000000e+00
19.275          	1.40895380e-01	2.13096080e-05	3.98617500e-05	5.69134810e-05	0.00000000e+00
19.28           	9.88482070e-02	2.13816000e-05	3.99410880e-05	8.31488810e-05	0.00000000e+00
19.285          	1.02012560e-01	2.14532030e-05	4.00197110e-05	7.60357740e-05	0.00000000e+00
19.29           	1.15726360e-01	2.15244180e-05	4.00976240e-05	5.17125900e-05	0.00000000e+00
19.295          	1.91612550e-01	2.15952380e-05	4.01748130e-05	8.89767260e-05	0.00000000e+00
19.3            	4.62228770e-01	2.16656710e-05	4.02512940e-05	4.50575750e-05	0.00000000e+00
19.305          	3.05356720e-01	2.17357080e-05	4.03270530e-05	5.62155740e-05	0.00000000e+00
19.31           	5.46507630e-01	2.18053550e-05	4.04021000e-05	9.20465870e-05	0.00000000e+00
19.315          	1.97221940e-01	2.18746110e-05	4.04764340e-05	6.47946790e-05	0.00000000e+00
19.32           	1.14908590e-01	2.19434750e-05	4.05500550e-05	6.51643920e-05	0.00000000e+00
19.325          	3.83061660e-01	2.20119470e-05	4.06229650e-05	1.24358270e-04	0.00000000e+00
19.33           	2.54293790e-01	2.20800270e-05	4.06951630e-05	8.43068170e-05	0.00000000e+00
19.335          	1.05797840e-01	2.21477150e-05	4.07666500e-05	6.78912130e-05	0.00000000e+00
19.34           	1.36729250e-01	2.22150110e-05	4.08374260e-05	1.18436120e-04	0.00000000e+00
19.345          	3.16577410e-01	2.22819140e-05	4.09074930e-05	1.06850440e-04	0.00000000e+00
19.35           	1.39040900e-01	2.23484280e-05	4.09768570e-05	4.32913590e-05	0.00000000e+00
19.355          	1.30145280e-01	2.24145470e-05	4.10455080e-05	1.22479850e-04	0.00000000e+00
19.36           	9.38760960e-02	2.24802710e-05	4.11134460e-05	7.82003130e-05	0.00000000e+00
19.365          	8.99415370e-02	2.25456050e-05	4.11806850e-05	9.64603360e-05	0.00000000e+00
19.37           	1.02651360e-01	2.26105440e-05	4.12472100e-05	8.03833500e-05	0.00000000e+00
19.375          	1.40455150e-01	2.26750930e-05	4.13130380e-05	4.42562170e-05	0.00000000e+00
19.38           	4.35409990e-01	2.27392480e-05	4.13781580e-05	9.63919290e-05	0.00000000e+00
19.385          	1.72585650e-01	2.28030070e-05	4.14425690e-05	7.78289990e-05	0.00000000e+00
19.39           	1.84777690e-01	2.28663770e-05	4.15062840e-05	6.35229760e-05	0.00000000e+00
19.395          	1.39316810e-01	2.29293530e-05	4.15692950e-05	7.15545070e-05	0.00000000e+00
19.4            	2.54973210e-01	2.29919330e-05	4.16315980e-05	8.37349230e-05	0.00000000e+00
19.405          	8.89833310e-02	2.30541240e-05	4.16932090e-05	5.34217400e-05	0.00000000e+00
19.41           	2.26193590e-01	2.31159170e-05	4.17541110e-05	7.05103990e-05	0.00000000e+00
19.415          	1.08001770e-01	2.31773190e-05	4.18143170e-05	7.92767470e-05	0.00000000e+00
19.42           	7.71951090e-02	2.32383310e-05	4.18738310e-05	1.06227870e-04	0.00000000e+00
19.425          	2.31617480e-01	2.32989480e-05	4.19326440e-05	5.14598750e-05	0.00000000e+00
19.43           	1.65978250e-01	2.33591690e-05	4.19907540e-05	7.93841380e-05	0.00000000e+00
19.435          	5.17165560e-01	2.34189970e-05	4.20481700e-05	7.87905500e-05	0.00000000e+00
19.44           	1.20489410e-01	2.34784360e-05	4.21048980e-05	8.07504320e-05	0.00000000e+00
19.445          	1.66579710e-01	2.35374800e-05	4.21609280e-05	9.02663300e-05	0.00000000e+00
19.45           	1.20094060e-01	2.35961300e-05	4.22162630e-05	6.25712120e-05	0.00000000e+00
19.455          	9.65106130e-02	2.36543870e-05	4.22709060e-05	6.01972370e-05	0.00000000e+00
19.46           	1.93459220e-01	2.37122510e-05	4.23248560e-05	9.13845090e-05	0.00000000e+00
19.465          	4.85183540e-01	2.37697210e-05	4.23781150e-05	1.15013140e-04	0.00000000e+00
19.47           	8.44004250e-02	2.38267980e-05	4.24306840e-05	1.34827670e-04	0.00000000e+00
19.475          	6.57776510e-02	2.38834820e-05	4.24825630e-05	1.93725950e-04	0.00000000e+00
19.48           	1.10389050e-01	2.39397730e-05	4.25337550e-05	1.60426250e-04	0.00000000e+00
19.485          	1.36300500e-01	2.39956680e-05	4.25842530e-05	1.50489800e-04	0.00000000e+00
19.49           	1.64618620e-01	2.40511730e-05	4.26340680e-05	1.88910600e-04	0.00000000e+00
19.495          	1.03402760e-01	2.41062840e-05	4.26831990e-05	2.24436380e-04	0.00000000e+00
19.5            	1.73878910e-01	2.41610070e-05	4.27316510e-05	1.59562180e-04	0.00000000e+00
19.505          	3.66100710e-02	2.42153310e-05	4.27794100e-05	1.80968620e-04	0.00000000e+00
19.51           	1.21604950e-01	2.42692650e-05	4.28264880e-05	1.88454900e-04	0.00000000e+00
19.515          	1.43462160e-01	2.43228090e-05	4.28728910e-05	1.39319290e-04	0.00000000e+00
19.52           	2.72219530e-01	2.43759580e-05	4.29186100e-05	1.95039250e-04	0.00000000e+00
19.525          	9.65802700e-02	2.44287150e-05	4.29636470e-05	1.83564060e-04	0.00000000e+00
19.53           	7.64091750e-02	2.44810770e-05	4.30079990e-05	1.91369260e-04	0.00000000e+00
19.535          	1.40939560e-01	2.45330480e-05	4.30516770e-05	1.89151670e-04	0.00000000e+00
19.54           	1.56789840e-01	2.45846300e-05	4.30946840e-05	1.97733060e-04	0.00000000e+00
19.545          	1.85303770e-01	2.46358160e-05	4.31370060e-05	1.59805230e-04	0.00000000e+00
19.55           	1.95588590e-01	2.46866110e-05	4.31786560e-05	1.63093630e-04	0.00000000e+00
19.555          	2.23814730e-01	2.47370180e-05	4.32196380e-05	1.05349770e-04	0.00000000e+00
19.56           	1.96612230e-01	2.47870290e-05	4.32599370e-05	1.27140370e-04	0.00000000e+00
19.565          	2.25166540e-01	2.48366520e-05	4.32995720e-05	9.55176940e-05	0.00000000e+00
19.57           	5.02452320e-02	2.48858830e-05	4.33385340e-05	1.41535620e-04	0.00000000e+00
19.575          	1.07916900e-01	2.49347210e-05	4.33768240e-05	1.38440750e-04	0.00000000e+00
19.58           	2.81030210e-01	2.49831660e-05	4.34144390e-05	1.06421780e-04	0.00000000e+00
19.585          	1.35154120e-01	2.50312250e-05	4.34513960e-05	8.63818000e-05	0.00000000e+00
19.59           	1.64573470e-01	2.50788880e-05	4.34876770e-05	6.77061210e-05	0.00000000e+00
19.595          	1.93063230e-01	2.51261660e-05	4.35233010e-05	6.81463130e-05	0.00000000e+00
19.6            	2.04014750e-01	2.51730510e-05	4.35582560e-05	1.12758440e-04	0.00000000e+00
19.605          	1.41222280e-01	2.52195460e-05	4.35925480e-05	8.98063930e-05	0.00000000e+00
19.61           	2.23480400e-01	2.52656510e-05	4.36261760e-05	7.50638170e-05	0.00000000e+00
19.615          	1.94021900e-01	2.53113620e-05	4.36591360e-05	7.36963630e-05	0.00000000e+00
19.62           	1.51229660e-01	2.53566860e-05	4.36914400e-05	8.43668230e-05	0.00000000e+00
19.625          	1.35919820e-01	2.54016250e-05	4.37230910e-05	5.77708800e-05	0.00000000e+00
19.63           	1.29507960e-01	2.54461690e-05	4.37540740e-05	9.39335460e-05	0.00000000e+00
19.635          	1.00889310e-01	2.54903280e-05	4.37844090e-05	6.55881860e-05	0.00000000e+00
19.64           	1.25153150e-01	2.55340970e-05	4.38140840e-05	9.84854090e-05	0.00000000e+00
19.645          	3.99950480e-01	2.55774740e-05	4.38430970e-05	5.25320440e-05	0.00000000e+00
19.65           	1.59754450e-01	2.56204670e-05	4.38714660e-05	6.75981250e-05	0.00000000e+00
19.655          	1.13669000e-01	2.56630670e-05	4.38991730e-05	9.44947210e-05	0.00000000e+00
19.66           	1.26194870e-01	2.57052840e-05	4.39262380e-05	5.88143770e-05	0.00000000e+00
19.665          	1.94596010e-01	2.57471090e-05	4.39526430e-05	6.70236700e-05	0.00000000e+00
19.67           	3.42161960e-01	2.57885500e-05	4.39784070e-05	7.62311610e-05	0.00000000e+00
19.675          	8.13427480e-02	2.58296000e-05	4.40035140e-05	7.42188290e-05	0.00000000e+00
19.68           	3.00645610e-01	2.58702650e-05	4.40279770e-05	5.19318240e-05	0.00000000e+00
19.685          	2.52198450e-01	2.59105420e-05	4.40517960e-05	9.07893270e-05	0.00000000e+00
19.69           	1.64127630e-01	2.59504340e-05	4.40749690e-05	9.08196220e-05	0.00000000e+00
19.695          	2.45433500e-01	2.59899430e-05	4.40975050e-05	1.42644850e-04	0.00000000e+00
19.7            	1.15776160e-01	2.60290630e-05	4.41193950e-05	5.37439790e-05	0.00000000e+00
19.705          	9.31597060e-02	2.60677940e-05	4.41406360e-05	1.37402500e-04	0.00000000e+00
19.71           	2.46707290e-01	2.61061410e-05	4.41612410e-05	1.28162220e-04	0.00000000e+00
19.715          	2.17550070e-01	2.61441070e-05	4.41812130e-05	8.51007170e-05	0.00000000e+00
19.72           	1.05897640e-01	2.61816860e-05	4.42005450e-05	8.03441920e-05	0.00000000e+00
19.725          	7.79080840e-02	2.62188760e-05	4.42192330e-05	9.17265200e-05	0.00000000e+00
19.73           	2.41172870e-01	2.62556840e-05	4.42372900e-05	1.04266360e-04	0.00000000e+00
19.735          	8.53493010e-02	2.62921120e-05	4.42547190e-05	1.42490860e-04	0.00000000e+00
19.74           	9.88253590e-02	2.63281540e-05	4.42715120e-05	7.39995910e-05	0.00000000e+00
19.745          	1.71913930e-01	2.63638130e-05	4.42876730e-05	6.89828210e-05	0.00000000e+00
19.75           	1.26910330e-01	2.63990840e-05	4.43031970e-05	1.16651620e-04	0.00000000e+00
19.755          	1.59900770e-01	2.64339750e-05	4.43180960e-05	6.60647500e-05	0.00000000e+00
19.76           	2.55594470e-01	2.64684840e-05	4.43323680e-05	1.46042430e-04	0.00000000e+00
19.765          	1.06070920e-01	2.65026110e-05	4.43460150e-05	9.71392030e-05	0.00000000e+00
19.77           	3.09841830e-01	2.65363600e-05	4.43590420e-05	1.24294120e-04	0.00000000e+00
19.775          	1.33256930e-01	2.65697250e-05	4.43714410e-05	1.14451310e-04	0.00000000e+00
19.78           	1.62909590e-01	2.66027050e-05	4.43832100e-05	1.18191150e-04	0.00000000e+00
19.785          	3.96175640e-01	2.66353060e-05	4.43943620e-05	8.09749670e-05	0.00000000e+00
19.79           	4.48989850e-01	2.66675270e-05	4.44048940e-05	9.68321750e-05	0.00000000e+00
19.795          	1.36914900e-01	2.66993720e-05	4.44148140e-05	8.15531140e-05	0.00000000e+00
19.8            	2.24789450e-01	2.67308310e-05	4.44241070e-05	1.31004760e-04	0.00000000e+00
19.805          	2.24374790e-01	2.67619130e-05	4.44327860e-05	9.73806990e-05	0.00000000e+00
19.81           	2.16851850e-01	2.67926160e-05	4.44408510e-05	1.22251870e-04	0.00000000e+00
19.815          	2.18184080e-01	2.68229410e-05	4.44483030e-05	1.22256400e-04	0.00000000e+00
19.82           	2.34209790e-01	2.68528870e-05	4.44551420e-05	8.07298670e-05	0.00000000e+00
19.825          	3.38579630e-01	2.68824590e-05	4.44613770e-05	9.03561110e-05	0.00000000e+00
19.83           	2.23319930e-01	2.69116470e-05	4.44669920e-05	9.05597690e-05	0.00000000e+00
19.835          	3.96952390e-01	2.69404610e-05	4.44720020e-05	1.25731900e-04	0.00000000e+00
19.84           	1.04288650e-01	2.69688970e-05	4.44764050e-05	1.13439330e-04	0.00000000e+00
19.845          	1.14938590e-01	2.69969580e-05	4.44802030e-05	9.50783810e-05	0.00000000e+00
19.85           	1.95614000e-01	2.70246460e-05	4.44834030e-05	9.19109900e-05	0.00000000e+00
19.855          	6.42367110e-02	2.70519530e-05	4.44859900e-05	8.42812700e-05	0.00000000e+00
19.86           	7.87654470e-02	2.70788900e-05	4.44879840e-05	6.80486670e-05	0.00000000e+00
19.865          	9.12026390e-02	2.71054470e-05	4.44893690e-05	6.95332990e-05	0.00000000e+00
19.87           	1.34723230e-01	2.71316310e-05	4.44901580e-05	8.20655830e-05	0.00000000e+00
19.875          	1.32340390e-01	2.71574420e-05	4.44903510e-05	9.46934250e-05	0.00000000e+00
19.88           	5.10268290e-01	2.71828800e-05	4.44899480e-05	1.01069930e-04	0.00000000e+00
19.885          	1.59455400e-01	2.72079450e-05	4.44889510e-05	9.89530950e-05	0.00000000e+00
19.89           	1.39971330e-01	2.72326370e-05	4.44873600e-05	9.94558350e-05	0.00000000e+00
19.895          	1.32242010e-01	2.72569570e-05	4.44851770e-05	6.36243150e-05	0.00000000e+00
19.9            	1.18384890e-01	2.72809050e-05	4.44824040e-05	1.10333240e-04	0.00000000e+00
19.905          	8.35055420e-02	2.73044860e-05	4.44790480e-05	9.12970910e-05	0.00000000e+00
19.91           	6.81279510e-02	2.73276930e-05	4.44751000e-05	6.32445190e-05	0.00000000e+00
19.915          	1.34979170e-01	2.73505300e-05	4.44705650e-05	5.87532730e-05	0.00000000e+00
19.92           	1.53942930e-01	2.73729930e-05	4.44654380e-05	7.69593650e-05	0.00000000e+00
19.925          	1.01228300e-01	2.73950920e-05	4.44597380e-05	7.33183240e-05	0.00000000e+00
19.93           	1.32667010e-01	2.74168170e-05	4.44534470e-05	7.61388120e-05	0.00000000e+00
19.935          	1.08274820e-01	2.74381790e-05	4.44465850e-05	8.30076300e-05	0.00000000e+00
19.94           	1.03872150e-01	2.74591710e-05	4.44391400e-05	8.19027990e-05	0.00000000e+00
19.945          	3.63603270e-01	2.74797910e-05	4.44311110e-05	1.08240800e-04	0.00000000e+00
19.95           	3.37566940e-01	2.75000470e-05	4.44225100e-05	8.98024020e-05	0.00000000e+00
19.955          	1.75322130e-01	2.75199370e-05	4.44133340e-05	1.05533720e-04	0.00000000e+00
19.96           	4.67783470e-01	2.75394610e-05	4.44035860e-05	1.28212660e-04	0.00000000e+00
19.965          	6.06996780e-02	2.75586190e-05	4.43932670e-05	7.53770410e-05	0.00000000e+00
19.97           	2.69668740e-01	2.75774130e-05	4.43823760e-05	1.04796670e-04	0.00000000e+00
19.975          	2.33048490e-01	2.75958450e-05	4.43709230e-05	7.80365860e-05	0.00000000e+00
19.98           	1.87411120e-01	2.76139110e-05	4.43588990e-05	1.24222120e-04	0.00000000e+00
19.985          	2.01520160e-01	2.76316130e-05	4.43463070e-05	1.23810490e-04	0.00000000e+00
19.99           	2.25261600e-01	2.76489510e-05	4.43331500e-05	1.54916430e-04	0.00000000e+00
19.995          	1.33061240e-01	2.76659270e-05	4.43194300e-05	1.16438430e-04	0.00000000e+00
20              	1.15919660e-01	2.76825400e-05	4.43051490e-05	1.19370640e-04	0.00000000e+00
20.005          	1.39137700e-01	2.76987930e-05	4.42903070e-05	2.06491780e-04	0.00000000e+00
20.01           	1.14745190e-01	2.77146840e-05	4.42749070e-05	8.37044440e-05	0.00000000e+00
20.015          	1.27122380e-01	2.77302150e-05	4.42589500e-05	9.13650410e-05	0.00000000e+00
20.02           	1.84274440e-01	2.77453860e-05	4.42424370e-05	8.90363160e-05	0.00000000e+00
20.025          	2.15600030e-01	2.77601940e-05	4.42253650e-05	1.35391360e-04	0.00000000e+00
20.03           	3.05337050e-01	2.77746500e-05	4.42077490e-05	1.05055100e-04	0.00000000e+00
20.035          	1.93391930e-01	2.77887450e-05	4.41895800e-05	1.14577210e-04	0.00000000e+00
20.04           	9.15265130e-02	2.78024830e-05	4.41708610e-05	1.38365520e-04	0.00000000e+00
20.045          	1.42228850e-01	2.78158630e-05	4.41515930e-05	1.44643540e-04	0.00000000e+00
20.05           	1.11851990e-01	2.78288830e-05	4.41317730e-05	1.00557180e-04	0.00000000e+00
20.055          	7.76692460e-02	2.78415520e-05	4.41114180e-05	1.11744520e-04	0.00000000e+00
20.06           	4.34944830e-01	2.78538620e-05	4.40905110e-05	9.26131590e-05	0.00000000e+00
20.065          	1.83991300e-01	2.78658210e-05	4.40690710e-05	8.73630970e-05	0.00000000e+00
20.07           	1.35823280e-01	2.78774220e-05	4.40470830e-05	7.42832160e-05	0.00000000e+00
20.075          	1.31355990e-01	2.78886700e-05	4.40245580e-05	7.94044580e-05	0.00000000e+00
20.08           	1.29375990e-01	2.78995660e-05	4.40014970e-05	8.29071990e-05	0.00000000e+00
20.085          	1.72862570e-01	2.79101090e-05	4.39779010e-05	8.37833080e-05	0.00000000e+00
20.09           	1.06379950e-01	2.79203040e-05	4.39537760e-05	9.41723780e-05	0.00000000e+00
20.095          	1.67028650e-01	2.79301460e-05	4.39291150e-05	9.47968050e-05	0.00000000e+00
20.1            	2.26514490e-01	2.79396360e-05	4.39039220e-05	9.04652970e-05	0.00000000e+00
20.105          	1.73496670e-01	2.79487720e-05	4.38781940e-05	8.97805540e-05	0.00000000e+00
20.11           	2.78349170e-01	2.79575640e-05	4.38519470e-05	5.71826800e-05	0.00000000e+00
20.115          	1.20751630e-01	2.79660060e-05	4.38251710e-05	7.49136570e-05	0.00000000e+00
20.12           	6.53628150e-02	2.79740950e-05	4.37978630e-05	7.93218920e-05	0.00000000e+00
20.125          	1.68724190e-01	2.79818420e-05	4.37700430e-05	1.04631040e-04	0.00000000e+00
20.13           	1.19319150e-01	2.79892370e-05	4.37416920e-05	8.29399460e-05	0.00000000e+00
20.135          	2.32701710e-01	2.79962880e-05	4.37128240e-05	8.11796280e-05	0.00000000e+00
20.14           	1.86649990e-01	2.80029960e-05	4.36834440e-05	9.88825710e-05	0.00000000e+00
20.145          	1.80121570e-01	2.80093580e-05	4.36535440e-05	7.32008210e-05	0.00000000e+00
20.15           	1.54667270e-01	2.80153730e-05	4.36231280e-05	6.82245600e-05	0.00000000e+00
20.155          	1.79377860e-01	2.80210450e-05	4.35921980e-05	7.37276790e-05	0.00000000e+00
20.16           	1.18493650e-01	2.80263740e-05	4.35607560e-05	1.34560150e-04	0.00000000e+00
20.165          	3.01425660e-01	2.80313560e-05	4.35287980e-05	8.49641620e-05	0.00000000e+00
20.17           	1.96953330e-01	2.80360020e-05	4.34963410e-05	5.36200970e-05	0.00000000e+00
20.175          	1.69372440e-01	2.80403010e-05	4.34633680e-05	1.21820460e-04	0.00000000e+00
20.18           	2.20250640e-01	2.80442650e-05	4.34298980e-05	1.26436210e-04	0.00000000e+00
20.185          	1.31141960e-01	2.80478880e-05	4.33959220e-05	1.09947460e-04	0.00000000e+00
20.19           	1.11852070e-01	2.80511700e-05	4.33614420e-05	2.03053900e-04	0.00000000e+00
20.195          	3.12512920e-01	2.80541130e-05	4.33264620e-05	8.82489390e-05	0.00000000e+00
20.2            	1.41708940e-01	2.80567180e-05	4.32909820e-05	6.08394230e-05	0.00000000e+00
20.205          	1.70044010e-01	2.80589820e-05	4.32549990e-05	9.46098820e-05	0.00000000e+00
20.21           	2.11539000e-01	2.80609160e-05	4.32185300e-05	9.83627880e-05	0.00000000e+00
20.215          	1.39269150e-01	2.80625110e-05	4.31815640e-05	1.08952170e-04	0.00000000e+00
20.22           	8.41201100e-02	2.80637710e-05	4.31441050e-05	6.66884240e-05	0.00000000e+00
20.225          	1.14421940e-01	2.80646920e-05	4.31061490e-05	7.81243840e-05	0.00000000e+00
20.23           	1.57564780e-01	2.80652820e-05	4.30677080e-05	6.45761800e-05	0.00000000e+00
20.235          	2.01071790e-01	2.80655390e-05	4.30287800e-05	1.51284080e-04	0.00000000e+00
20.24           	1.57436000e-01	2.80654660e-05	4.29893720e-05	8.17928380e-05	0.00000000e+00
20.245          	1.48605820e-01	2.80650600e-05	4.29494770e-05	1.24166250e-04	0.00000000e+00
20.25           	2.34735020e-01	2.80643220e-05	4.29090970e-05	1.10717260e-04	0.00000000e+00
20.255          	1.16640650e-01	2.80632530e-05	4.28682360e-05	5.94923680e-05	0.00000000e+00
20.26           	3.38048700e-01	2.80618530e-05	4.28268960e-05	8.82291820e-05	0.00000000e+00
20.265          	3.09901270e-01	2.80601220e-05	4.27850730e-05	9.28512070e-05	0.00000000e+00
20.27           	2.74897760e-01	2.80580640e-05	4.27427770e-05	4.73165540e-05	0.00000000e+00
20.275          	1.04626700e-01	2.80556820e-05	4.27000140e-05	9.78108490e-05	0.00000000e+00
20.28           	2.92203970e-01	2.80529680e-05	4.26567690e-05	1.21189220e-04	0.00000000e+00
20.285          	8.68227720e-02	2.80499290e-05	4.26130560e-05	1.04434720e-04	0.00000000e+00
20.29           	1.03236910e-01	2.80465690e-05	4.25688800e-05	6.33767120e-05	0.00000000e+00
20.295          	2.24867440e-01	2.80428810e-05	4.25242330e-05	1.14474640e-04	0.00000000e+00
20.3            	1.36505080e-01	2.80388690e-05	4.24791180e-05	5.25671760e-05	0.00000000e+00
20.305          	1.76528540e-01	2.80345290e-05	4.24335340e-05	6.58237460e-05	0.00000000e+00
20.31           	3.66099820e-01	2.80298730e-05	4.23874960e-05	9.40506970e-05	0.00000000e+00
20.315          	8.17647150e-02	2.80248890e-05	4.23409890e-05	4.47384500e-05	0.00000000e+00
20.32           	2.07611000e-01	2.80195860e-05	4.22940260e-05	8.02430160e-05	0.00000000e+00
20.325          	1.91328960e-01	2.80139630e-05	4.22466060e-05	6.36630320e-05	0.00000000e+00
20.33           	7.91741070e-02	2.80080200e-05	4.21987310e-05	8.96065850e-05	0.00000000e+00
20.335          	1.42964220e-01	2.80017620e-05	4.21504070e-05	4.71614940e-05	0.00000000e+00
20.34           	1.10423030e-01	2.79951840e-05	4.21016270e-05	1.01119060e-04	0.00000000e+00
20.345          	9.79227250e-02	2.79882870e-05	4.20523950e-05	4.52389000e-05	0.00000000e+00
20.35           	1.36725380e-01	2.79810700e-05	4.20027080e-05	5.29432840e-05	0.00000000e+00
20.355          	4.97509090e-01	2.79735380e-05	4.19525770e-05	6.53015880e-05	0.00000000e+00
20.36           	2.03307520e-01	2.79656930e-05	4.19020020e-05	9.83231010e-05	0.00000000e+00
20.365          	1.75533630e-01	2.79575360e-05	4.18509890e-05	5.97144510e-05	0.00000000e+00
20.37           	1.21587400e-01	2.79490640e-05	4.17995290e-05	6.17913220e-05	0.00000000e+00
20.375          	2.75186170e-01	2.79402740e-05	4.17476230e-05	1.02583910e-04	0.00000000e+00
20.38           	9.72554310e-02	2.79311740e-05	4.16952810e-05	9.87230360e-05	0.00000000e+00
20.385          	5.83034110e-02	2.79217640e-05	4.16425030e-05	1.07682630e-04	0.00000000e+00
20.39           	2.73741530e-01	2.79120430e-05	4.15892900e-05	8.48505610e-05	0.00000000e+00
20.395          	1.57283970e-01	2.79020150e-05	4.15356490e-05	1.01169940e-04	0.00000000e+00
20.4            	1.15849080e-01	2.78916730e-05	4.14815660e-05	1.02829340e-04	0.00000000e+00
20.405          	1.84122150e-01	2.78810280e-05	4.14270620e-05	6.25848800e-05	0.00000000e+00
20.41           	1.49931140e-01	2.78700730e-05	4.13721250e-05	4.18256010e-05	0.00000000e+00
20.415          	1.03664050e-01	2.78588070e-05	4.13167560e-05	6.25670240e-05	0.00000000e+00
20.42           	1.00758030e-01	2.78472410e-05	4.12609710e-05	8.04930590e-05	0.00000000e+00
20.425          	7.76693090e-02	2.78353650e-05	4.12047540e-05	9.57602130e-05	0.00000000e+00
20.43           	3.18178340e-01	2.78231860e-05	4.11481180e-05	7.67275900e-05	0.00000000e+00
20.435          	1.26845460e-01	2.78107040e-05	4.10910630e-05	6.23516580e-05	0.00000000e+00
20.44           	2.07738430e-01	2.77979230e-05	4.10335950e-05	8.41381990e-05	0.00000000e+00
20.445          	1.30553620e-01	2.77848380e-05	4.09757080e-05	1.14184720e-04	0.00000000e+00
20.45           	5.17593850e-02	2.77714500e-05	4.09174050e-05	4.74268690e-05	0.00000000e+00
20.455          	4.43463610e-01	2.77577630e-05	4.08586880e-05	6.94827770e-05	0.00000000e+00
20.46           	9.52137350e-02	2.77437750e-05	4.07995600e-05	6.72278410e-05	0.00000000e+00
20.465          	9.62481430e-02	2.77294890e-05	4.07400220e-05	1.51283040e-04	0.00000000e+00
20.47           	9.31026850e-02	2.77149010e-05	4.06800710e-05	6.48424490e-05	0.00000000e+00
20.475          	2.39663530e-01	2.77000190e-05	4.06197180e-05	5.59140950e-05	0.00000000e+00
20.48           	6.59494470e-02	2.76848410e-05	4.05589610e-05	7.41406140e-05	0.00000000e+00
20.485          	2.40767260e-01	2.76693710e-05	4.04978080e-05	6.54083910e-05	0.00000000e+00
20.49           	9.50942850e-02	2.76536010e-05	4.04362450e-05	4.78272870e-05	0.00000000e+00
20.495          	1.25689410e-01	2.76375420e-05	4.03742910e-05	6.35436820e-05	0.00000000e+00
20.5            	1.21397770e-01	2.76211880e-05	4.03119360e-05	7.20231320e-05	0.00000000e+00
20.505          	1.33127370e-01	2.76045410e-05	4.02491850e-05	1.86864800e-04	0.00000000e+00
20.51           	9.66839060e-02	2.75876030e-05	4.01860400e-05	1.32551980e-04	0.00000000e+00
20.515          	1.98179460e-01	2.75703740e-05	4.01225020e-05	1.24865090e-04	0.00000000e+00
20.52           	1.91214890e-01	2.75528520e-05	4.00585690e-05	1.64897950e-04	0.00000000e+00
20.525          	1.33276900e-01	2.75350470e-05	3.99942560e-05	1.10313550e-04	0.00000000e+00
20.53           	1.46932090e-01	2.75169490e-05	3.99295490e-05	1.26795930e-04	0.00000000e+00
20.535          	1.46212800e-01	2.74985690e-05	3.98644640e-05	1.46467110e-04	0.00000000e+00
20.54           	2.43430440e-01	2.74799010e-05	3.97989940e-05	1.93810610e-04	0.00000000e+00
20.545          	9.66329300e-02	2.74609430e-05	3.97331350e-05	1.21060810e-04	0.00000000e+00
20.55           	3.92490610e-01	2.74417030e-05	3.96669000e-05	1.51132120e-04	0.00000000e+00
20.555          	1.68065860e-01	2.74221800e-05	3.96002880e-05	1.96985230e-04	0.00000000e+00
20.56           	2.04078350e-01	2.74023770e-05	3.95333050e-05	1.61674590e-04	0.00000000e+00
20.565          	1.07238250e-01	2.73822870e-05	3.94659400e-05	1.77199780e-04	0.00000000e+00
20.57           	1.55780390e-01	2.73619170e-05	3.93982030e-05	2.49385720e-04	0.00000000e+00
20.575          	1.24306530e-01	2.73412670e-05	3.93300960e-05	2.07897010e-04	0.00000000e+00
20.58           	2.12753830e-01	2.73203380e-05	3.92616210e-05	2.00078650e-04	0.00000000e+00
20.585          	2.74919450e-01	2.72991340e-05	3.91927820e-05	2.06193670e-04	0.00000000e+00
20.59           	1.13591190e-01	2.72776460e-05	3.91235700e-05	1.68742920e-04	0.00000000e+00
20.595          	8.98896900e-02	2.72558860e-05	3.90540010e-05	2.27748110e-04	0.00000000e+00
20.6            	1.41056270e-01	2.72338490e-05	3.89840670e-05	2.04464510e-04	0.00000000e+00
20.605          	4.76176530e-02	2.72115320e-05	3.89137660e-05	2.33257280e-04	0.00000000e+00
20.61           	2.01575460e-01	2.71889430e-05	3.88431100e-05	1.64018990e-04	0.00000000e+00
20.615          	8.27207840e-02	2.71660810e-05	3.87720980e-05	1.48727810e-04	0.00000000e+00
20.62           	1.31558600e-01	2.71429500e-05	3.87007360e-05	2.41117380e-04	0.00000000e+00
20.625          	1.27109410e-01	2.71195420e-05	3.86290120e-05	1.30534220e-04	0.00000000e+00
20.63           	3.59733800e-01	2.70958680e-05	3.85569440e-05	2.12743280e-04	0.00000000e+00
20.635          	3.71121890e-01	2.70719200e-05	3.84845180e-05	1.34212510e-04	0.00000000e+00
20.64           	4.20589060e-01	2.70477060e-05	3.84117520e-05	1.24136100e-04	0.00000000e+00
20.645          	1.55736460e-01	2.70232200e-05	3.83386320e-05	2.22587390e-04	0.00000000e+00
20.65           	2.12220080e-01	2.69984720e-05	3.82651740e-05	1.50346040e-04	0.00000000e+00
20.655          	2.84092960e-01	2.69734520e-05	3.81913660e-05	1.22242100e-04	0.00000000e+00
20.66           	1.75985160e-01	2.69481680e-05	3.81172200e-05	1.17901780e-04	0.00000000e+00
20.665          	3.65165420e-01	2.69226240e-05	3.80427400e-05	1.47080420e-04	0.00000000e+00
20.67           	1.73861000e-01	2.68968100e-05	3.79679150e-05	1.23523810e-04	0.00000000e+00
20.675          	3.36091270e-01	2.68707350e-05	3.78927560e-05	1.12201640e-04	0.00000000e+00
20.68           	1.42642860e-01	2.68443990e-05	3.78172630e-05	8.98818570e-05	0.00000000e+00
20.685          	1.34781420e-01	2.68178020e-05	3.77414390e-05	1.15798770e-04	0.00000000e+00
20.69           	2.91615370e-01	2.67909480e-05	3.76652890e-05	9.92600120e-05	0.00000000e+00
20.695          	2.52237880e-01	2.67638290e-05	3.75888030e-05	5.47996350e-05	0.00000000e+00
20.7            	1.23582370e-01	2.67364530e-05	3.75119910e-05	6.41914140e-05	0.00000000e+00
20.705          	1.17834430e-01	2.67088240e-05	3.74348600e-05	9.73512220e-05	0.00000000e+00
20.71           	1.53679430e-01	2.66809330e-05	3.73573980e-05	6.98014060e-05	0.00000000e+00
20.715          	2.50433590e-01	2.66527910e-05	3.72796210e-05	8.47210680e-05	0.00000000e+00
20.72           	1.02833160e-01	2.66243890e-05	3.72015170e-05	8.78829850e-05	0.00000000e+00
20.725          	1.51346140e-01	2.65957390e-05	3.71231020e-05	9.63363830e-05	0.00000000e+00
20.73           	1.49109380e-01	2.65668330e-05	3.70443680e-05	9.21495560e-05	0.00000000e+00
20.735          	1.25477850e-01	2.65376720e-05	3.69653150e-05	8.79972570e-05	0.00000000e+00
20.74           	2.02842390e-01	2.65082620e-05	3.68859510e-05	6.64047140e-05	0.00000000e+00
20.745          	1.22196440e-01	2.64786030e-05	3.68062770e-05	1.22901820e-04	0.00000000e+00
20.75           	1.86144380e-01	2.64486940e-05	3.67262940e-05	1.31008730e-04	0.00000000e+00
20.755          	1.05616940e-01	2.64185370e-05	3.66460040e-05	5.68001010e-05	0.00000000e+00
20.76           	1.30915220e-01	2.63881360e-05	3.65654130e-05	7.78689810e-05	0.00000000e+00
20.765          	1.30872800e-01	2.63574840e-05	3.64845100e-05	6.24809570e-05	0.00000000e+00
20.77           	1.12336070e-01	2.63265900e-05	3.64033120e-05	9.68048330e-05	0.00000000e+00
20.775          	1.27122630e-01	2.62954500e-05	3.63218110e-05	5.28049340e-05	0.00000000e+00
20.78           	9.13242010e-02	2.62640620e-05	3.62400060e-05	6.80089120e-05	0.00000000e+00
20.785          	1.40862380e-01	2.62324370e-05	3.61579110e-05	8.18199980e-05	0.00000000e+00
20.79           	1.71482060e-01	2.62005650e-05	3.60755140e-05	7.07520580e-05	0.00000000e+00
20.795          	3.82665290e-01	2.61684570e-05	3.59928320e-05	7.71637940e-05	0.00000000e+00
20.8            	2.17994200e-01	2.61361080e-05	3.59098550e-05	1.04685140e-04	0.00000000e+00
20.805          	3.51148010e-01	2.61035150e-05	3.58265830e-05	6.84243370e-05	0.00000000e+00
20.81           	1.15375720e-01	2.60706900e-05	3.57430300e-05	8.89866850e-05	0.00000000e+00
20.815          	2.52191980e-01	2.60376260e-05	3.56591890e-05	8.53194430e-05	0.00000000e+00
20.82           	8.80174130e-02	2.60043220e-05	3.55750590e-05	4.85070890e-05	0.00000000e+00
20.825          	1.70073070e-01	2.59707840e-05	3.54906480e-05	5.95718390e-05	0.00000000e+00
20.83           	5.06833480e-01	2.59370130e-05	3.54059570e-05	1.06524270e-04	0.00000000e+00
20.835          	5.09585170e-02	2.59030090e-05	3.53209870e-05	7.54132680e-05	0.00000000e+00
20.84           	2.18575720e-01	2.58687750e-05	3.52357450e-05	8.68318560e-05	0.00000000e+00
20.845          	4.05171700e-01	2.58343080e-05	3.51502240e-05	7.19613320e-05	0.00000000e+00
20.85           	8.91376850e-02	2.57996060e-05	3.50644230e-05	8.83227320e-05	0.00000000e+00
20.855          	2.00637230e-01	2.57646790e-05	3.49783580e-05	9.43498650e-05	0.00000000e+00
20.86           	6.13285840e-02	2.57295220e-05	3.48920200e-05	8.31369750e-05	0.00000000e+00
20.865          	2.73795820e-01	2.56941340e-05	3.48054080e-05	1.22991090e-04	0.00000000e+00
20.87           	1.21008010e-01	2.56585210e-05	3.47185310e-05	8.66549750e-05	0.00000000e+00
20.875          	1.42768770e-01	2.56226850e-05	3.46313960e-05	1.21113950e-04	0.00000000e+00
20.88           	6.08009480e-02	2.55866230e-05	3.45439940e-05	1.70457070e-04	0.00000000e+00
20.885          	1.36012230e-01	2.55503330e-05	3.44563250e-05	1.37085410e-04	0.00000000e+00
20.89           	7.25181870e-02	2.55138210e-05	3.43683990e-05	1.93825820e-04	0.00000000e+00
20.895          	9.15480620e-02	2.54770920e-05	3.42802200e-05	1.92705950e-04	0.00000000e+00
20.9            	1.94324260e-01	2.54401390e-05	3.41917830e-05	1.74808840e-04	0.00000000e+00
20.905          	1.17070170e-01	2.54029650e-05	3.41030890e-05	1.64443280e-04	0.00000000e+00
20.91           	1.24548660e-01	2.53655690e-05	3.40141380e-05	1.97257830e-04	0.00000000e+00
20.915          	1.94796900e-01	2.53279590e-05	3.39249440e-05	1.17257510e-04	0.00000000e+00
20.92           	1.13706910e-01	2.52901280e-05	3.38354940e-05	1.78067800e-04	0.00000000e+00
20.925          	2.17408340e-01	2.52520850e-05	3.37458020e-05	1.30565210e-04	0.00000000e+00
20.93           	1.35380430e-01	2.52138220e-05	3.36558590e-05	1.28527780e-04	0.00000000e+00
20.935          	6.76978030e-02	2.51753450e-05	3.35656730e-05	1.54612710e-04	0.00000000e+00
20.94           	1.61248410e-01	2.51366590e-05	3.34752510e-05	1.34738940e-04	0.00000000e+00
20.945          	1.24941690e-01	2.50977590e-05	3.33845850e-05	1.84025720e-04	0.00000000e+00
20.95           	1.83601200e-01	2.50586430e-05	3.32936750e-05	1.19558560e-04	0.00000000e+00
20.955          	1.92473140e-01	2.50193180e-05	3.32025300e-05	1.82518160e-04	0.00000000e+00
20.96           	1.52422840e-01	2.49797840e-05	3.31111510e-05	2.07054970e-04	0.00000000e+00
20.965          	9.38808590e-02	2.49400410e-05	3.30195390e-05	1.43159110e-04	0.00000000e+00
20.97           	1.93953460e-01	2.49000910e-05	3.29276950e-05	1.81673320e-04	0.00000000e+00
20.975          	1.20240860e-01	2.48599340e-05	3.28356210e-05	1.77864720e-04	0.00000000e+00
20.98           	1.00645570e-01	2.48195740e-05	3.27433230e-05	1.66744460e-04	0.00000000e+00
20.985          	1.96684160e-01	2.47790050e-05	3.26507910e-05	1.82306980e-04	0.00000000e+00
20.99           	2.14995950e-01	2.47382350e-05	3.25580410e-05	1.51034720e-04	0.00000000e+00
20.995          	1.87499300e-01	2.46972580e-05	3.24650600e-05	2.18605420e-04	0.00000000e+00
21              	1.07501340e-01	2.46560810e-05	3.23718610e-05	1.51607010e-04	0.00000000e+00
21.005          	8.45156330e-02	2.46147030e-05	3.22784420e-05	2.13072440e-04	0.00000000e+00
21.01           	1.81080470e-01	2.45731280e-05	3.21848100e-05	2.17468550e-04	0.00000000e+00
21.015          	1.82558800e-01	2.45313490e-05	3.20909550e-05	2.16550370e-04	0.00000000e+00
21.02           	1.05102430e-01	2.44893730e-05	3.19968880e-05	2.05438530e-04	0.00000000e+00
21.025          	1.12035360e-01	2.44472010e-05	3.19026080e-05	1.40842990e-04	0.00000000e+00
21.03           	1.11247230e-01	2.44048350e-05	3.18081210e-05	1.86256560e-04	0.00000000e+00
21.035          	1.67319000e-01	2.43622700e-05	3.17134190e-05	1.51001920e-04	0.00000000e+00
21.04           	1.48811060e-01	2.43195110e-05	3.16185110e-05	1.52815510e-04	0.00000000e+00
21.045          	1.99046910e-01	2.42765630e-05	3.15234010e-05	1.19971610e-04	0.00000000e+00
21.05           	1.47394990e-01	2.42334200e-05	3.14280850e-05	1.12788210e-04	0.00000000e+00
21.055          	8.87150720e-02	2.41900860e-05	3.13325660e-05	1.22311880e-04	0.00000000e+00
21.06           	1.16125910e-01	2.41465610e-05	3.12368460e-05	8.68817720e-05	0.00000000e+00
21.065          	1.67580070e-01	2.41028430e-05	3.11409220e-05	9.95192900e-05	0.00000000e+00
21.07           	1.15794540e-01	2.40589390e-05	3.10448040e-05	1.20873450e-04	0.00000000e+00
21.075          	8.14413900e-02	2.40148510e-05	3.09484960e-05	1.24964800e-04	0.00000000e+00
21.08           	1.80542910e-01	2.39705720e-05	3.08519870e-05	1.39228890e-04	0.00000000e+00
21.085          	7.59435990e-02	2.39261120e-05	3.07552920e-05	1.22897630e-04	0.00000000e+00
21.09           	1.99219420e-01	2.38814660e-05	3.06584050e-05	6.76432880e-05	0.00000000e+00
21.095          	1.44277280e-01	2.38366330e-05	3.05613240e-05	8.20754190e-05	0.00000000e+00
21.1            	1.94740100e-01	2.37916220e-05	3.04640630e-05	1.09777360e-04	0.00000000e+00
21.105          	1.38408760e-01	2.37464280e-05	3.03666150e-05	7.44095700e-05	0.00000000e+00
21.11           	9.80719420e-02	2.37010530e-05	3.02689830e-05	7.42205680e-05	0.00000000e+00
21.115          	9.12945170e-02	2.36554950e-05	3.01711640e-05	6.68269730e-05	0.00000000e+00
21.12           	3.58212910e-01	2.36097630e-05	3.00731720e-05	6.56570960e-05	0.00000000e+00
21.125          	1.08624840e-01	2.35638500e-05	2.99749960e-05	9.13689300e-05	0.00000000e+00
21.13           	1.73772050e-01	2.35177610e-05	2.98766450e-05	1.31045480e-04	0.00000000e+00
21.135          	2.99217010e-01	2.34715000e-05	2.97781240e-05	1.16253240e-04	0.00000000e+00
21.14           	2.81265710e-01	2.34250620e-05	2.96794270e-05	1.22615710e-04	0.00000000e+00
21.145          	1.02148060e-01	2.33784470e-05	2.95805530e-05	1.22488430e-04	0.00000000e+00
21.15           	1.11683370e-01	2.33316620e-05	2.94815120e-05	1.07117900e-04	0.00000000e+00
21.155          	1.54398260e-01	2.32847040e-05	2.93823040e-05	1.56406650e-04	0.00000000e+00
21.16           	1.35767240e-01	2.32375790e-05	2.92829330e-05	1.59317800e-04	0.00000000e+00
21.165          	1.36183830e-01	2.31902830e-05	2.91833950e-05	1.13093380e-04	0.00000000e+00
21.17           	2.81288370e-01	2.31428140e-05	2.90836890e-05	1.30456700e-04	0.00000000e+00
21.175          	1.58042250e-01	2.30951780e-05	2.89838230e-05	9.49641120e-05	0.00000000e+00
21.18           	2.43402410e-01	2.30473800e-05	2.88838030e-05	1.00138730e-04	0.00000000e+00
21.185          	6.54959660e-02	2.29994130e-05	2.87836220e-05	1.08274470e-04	0.00000000e+00
21.19           	1.80697510e-01	2.29512780e-05	2.86832800e-05	9.19068730e-05	0.00000000e+00
21.195          	1.33191610e-01	2.29029810e-05	2.85827850e-05	1.14991080e-04	0.00000000e+00
21.2            	2.14809180e-01	2.28545220e-05	2.84821380e-05	8.83065730e-05	0.00000000e+00
21.205          	1.07567270e-01	2.28059030e-05	2.83813440e-05	5.55134410e-05	0.00000000e+00
21.21           	1.44204790e-01	2.27571190e-05	2.82803930e-05	5.25874620e-05	0.00000000e+00
21.215          	1.75243470e-01	2.27081760e-05	2.81792970e-05	7.78303530e-05	0.00000000e+00
21.22           	1.18742620e-01	2.26590770e-05	2.80780580e-05	7.21975980e-05	0.00000000e+00
21.225          	1.62522850e-01	2.26098180e-05	2.79766720e-05	8.92717560e-05	0.00000000e+00
21.23           	3.59271330e-01	2.25603990e-05	2.78751380e-05	9.74077090e-05	0.00000000e+00
21.235          	1.31651950e-01	2.25108280e-05	2.77734690e-05	1.12564400e-04	0.00000000e+00
21.24           	1.36131600e-01	2.24610980e-05	2.76716550e-05	9.83181210e-05	0.00000000e+00
21.245          	1.06258230e-01	2.24112180e-05	2.75697080e-05	1.23261070e-04	0.00000000e+00
21.25           	1.09598930e-01	2.23611800e-05	2.74676190e-05	1.34464810e-04	0.00000000e+00
21.255          	1.33921000e-01	2.23109950e-05	2.73654010e-05	7.79255880e-05	0.00000000e+00
21.26           	1.53830910e-01	2.22606560e-05	2.72630480e-05	8.65361590e-05	0.00000000e+00
21.265          	7.83776880e-02	2.22101650e-05	2.71605590e-05	7.50118670e-05	0.00000000e+00
21.27           	2.82553050e-01	2.21595250e-05	2.70579420e-05	9.36884320e-05	0.00000000e+00
21.275          	1.12643400e-01	2.21087380e-05	2.69551980e-05	1.48187460e-04	0.00000000e+00
21.28           	1.25977580e-01	2.20578070e-05	2.68523310e-05	1.07877160e-04	0.00000000e+00
21.285          	1.10060070e-01	2.20067270e-05	2.67493370e-05	1.32735980e-04	0.00000000e+00
21.29           	2.83173030e-01	2.19555010e-05	2.66462190e-05	9.87011600e-05	0.00000000e+00
21.295          	8.18136750e-02	2.19041280e-05	2.65429750e-05	8.73833310e-05	0.00000000e+00
21.3            	2.07824720e-01	2.18526160e-05	2.64396170e-05	9.08075600e-05	0.00000000e+00
21.305          	2.00399710e-01	2.18009600e-05	2.63361390e-05	8.82224940e-05	0.00000000e+00
21.31           	2.90578470e-01	2.17491600e-05	2.62325410e-05	4.86942210e-05	0.00000000e+00
21.315          	1.17330310e-01	2.16972240e-05	2.61288320e-05	7.00915660e-05	0.00000000e+00
21.32           	2.10567880e-01	2.16451470e-05	2.60250090e-05	5.56921610e-05	0.00000000e+00
21.325          	1.31659580e-01	2.15929310e-05	2.59210730e-05	1.01949330e-04	0.00000000e+00
21.33           	1.28727170e-01	2.15405770e-05	2.58170260e-05	7.23090010e-05	0.00000000e+00
21.335          	1.48848140e-01	2.14880860e-05	2.57128710e-05	6.70145150e-05	0.00000000e+00
21.34           	1.77041780e-01	2.14354580e-05	2.56086060e-05	5.85537240e-05	0.00000000e+00
21.345          	9.40646800e-02	2.13826960e-05	2.55042370e-05	5.78599530e-05	0.00000000e+00
21.35           	2.30351960e-01	2.13298040e-05	2.53997680e-05	8.54453790e-05	0.00000000e+00
21.355          	6.90246970e-02	2.12767750e-05	2.52951920e-05	4.92354050e-05	0.00000000e+00
21.36           	1.59399300e-01	2.12236150e-05	2.51905170e-05	5.51921070e-05	0.00000000e+00
21.365          	1.41622930e-01	2.11703280e-05	2.50857470e-05	4.61597310e-05	0.00000000e+00
21.37           	1.06333390e-01	2.11169070e-05	2.49808740e-05	7.97625050e-05	0.00000000e+00
21.375          	7.42531030e-02	2.10633610e-05	2.48759100e-05	9.44533090e-05	0.00000000e+00
21.38           	1.56394870e-01	2.10096860e-05	2.47708500e-05	1.26975300e-04	0.00000000e+00
21.385          	3.21805990e-01	2.09558830e-05	2.46656970e-05	9.23558670e-05	0.00000000e+00
21.39           	1.91756900e-01	2.09019520e-05	2.45604490e-05	1.41958910e-04	0.00000000e+00
21.395          	8.65146190e-02	2.08479000e-05	2.44551170e-05	1.09533980e-04	0.00000000e+00
21.4            	1.62510640e-01	2.07937200e-05	2.43496930e-05	1.21273760e-04	0.00000000e+00
21.405          	2.24936870e-01	2.07394220e-05	2.42441870e-05	1.04740720e-04	0.00000000e+00
21.41           	4.02774910e-01	2.06849970e-05	2.41385920e-05	1.11274460e-04	0.00000000e+00
21.415          	1.24883960e-01	2.06304530e-05	2.40329150e-05	1.13106890e-04	0.00000000e+00
21.42           	8.06251860e-02	2.05757910e-05	2.39271600e-05	1.29180480e-04	0.00000000e+00
21.425          	1.23103280e-01	2.05210090e-05	2.38213240e-05	1.40771810e-04	0.00000000e+00
21.43           	1.53568650e-01	2.04661060e-05	2.37154050e-05	1.36693330e-04	0.00000000e+00
21.435          	6.32912130e-02	2.04110900e-05	2.36094140e-05	1.10062150e-04	0.00000000e+00
21.44           	1.16964960e-01	2.03559560e-05	2.35033470e-05	9.52792300e-05	0.00000000e+00
21.445          	2.10734810e-01	2.03007040e-05	2.33972020e-05	1.30207620e-04	0.00000000e+00
21.45           	1.34074080e-01	2.02453420e-05	2.32909910e-05	7.94756930e-05	0.00000000e+00
21.455          	3.06689460e-01	2.01898630e-05	2.31847040e-05	7.45247240e-05	0.00000000e+00
21.46           	2.30274390e-01	2.01342730e-05	2.30783490e-05	8.40132930e-05	0.00000000e+00
21.465          	1.20967450e-01	2.00785750e-05	2.29719310e-05	9.53759200e-05	0.00000000e+00
21.47           	2.65359770e-01	2.00227620e-05	2.28654420e-05	1.54053770e-04	0.00000000e+00
21.475          	1.84991480e-01	1.99668410e-05	2.27588900e-05	1.32103610e-04	0.00000000e+00
21.48           	1.80387650e-01	1.99108140e-05	2.26522780e-05	8.00887670e-05	0.00000000e+00
21.485          	3.11032460e-01	1.98546780e-05	2.25456040e-05	1.16754090e-04	0.00000000e+00
21.49           	1.10811130e-01	1.97984350e-05	2.24388690e-05	7.75554970e-05	0.00000000e+00
21.495          	1.56567450e-01	1.97420860e-05	2.23320750e-05	1.13368140e-04	0.00000000e+00
21.5            	1.97327240e-01	1.96856330e-05	2.22252250e-05	1.17651390e-04	0.00000000e+00
21.505          	1.71783920e-01	1.96290750e-05	2.21183200e-05	7.77450180e-05	0.00000000e+00
21.51           	2.66776640e-01	1.95724160e-05	2.20113610e-05	6.41082350e-05	0.00000000e+00
21.515          	1.43443100e-01	1.95156540e-05	2.19043490e-05	9.71517220e-05	0.00000000e+00
21.52           	6.61132300e-02	1.94587890e-05	2.17972850e-05	6.14329800e-05	0.00000000e+00
21.525          	2.22506710e-01	1.94018280e-05	2.16901760e-05	7.32304340e-05	0.00000000e+00
21.53           	9.85134800e-02	1.93447650e-05	2.15830150e-05	1.00085210e-04	0.00000000e+00
21.535          	1.47810400e-01	1.92876070e-05	2.14758130e-05	1.05232500e-04	0.00000000e+00
21.54           	2.94843620e-01	1.92303490e-05	2.13685620e-05	6.69553800e-05	0.00000000e+00
21.545          	1.46772270e-01	1.91729990e-05	2.12612720e-05	1.09796350e-04	0.00000000e+00
21.55           	1.79234190e-01	1.91155500e-05	2.11539360e-05	8.57065610e-05	0.00000000e+00
21.555          	1.32966450e-01	1.90580100e-05	2.10465640e-05	7.90534850e-05	0.00000000e+00
21.56           	2.04627320e-01	1.90003760e-05	2.09391530e-05	6.83668590e-05	0.00000000e+00
21.565          	3.62446020e-01	1.89426460e-05	2.08317010e-05	8.82641520e-05	0.00000000e+00
21.57           	1.36319100e-01	1.88848270e-05	2.07242160e-05	7.52107430e-05	0.00000000e+00
21.575          	2.72690230e-01	1.88269180e-05	2.06166970e-05	7.80655170e-05	0.00000000e+00
21.58           	1.08634560e-01	1.87689200e-05	2.05091450e-05	8.93101440e-05	0.00000000e+00
21.585          	3.07546790e-01	1.87108360e-05	2.04015650e-05	9.83416260e-05	0.00000000e+00
21.59           	1.32679790e-01	1.86526620e-05	2.02939540e-05	7.89554340e-05	0.00000000e+00
21.595          	2.64945730e-01	1.85944000e-05	2.01863120e-05	8.76870900e-05	0.00000000e+00
21.6            	3.08732910e-01	1.85360530e-05	2.00786440e-05	1.10790200e-04	0.00000000e+00
21.605          	1.55393430e-01	1.84776210e-05	1.99709520e-05	1.01467230e-04	0.00000000e+00
21.61           	4.21742390e-01	1.84191060e-05	1.98632360e-05	7.38081300e-05	0.00000000e+00
21.615          	3.18502280e-01	1.83605110e-05	1.97555010e-05	6.57948410e-05	0.00000000e+00
21.62           	2.83226130e-01	1.83018320e-05	1.96477430e-05	1.06548220e-04	0.00000000e+00
21.625          	7.16501690e-02	1.82430720e-05	1.95399650e-05	6.19569520e-05	0.00000000e+00
21.63           	1.50062520e-01	1.81842310e-05	1.94321690e-05	5.04300930e-05	0.00000000e+00
21.635          	9.27492360e-02	1.81253120e-05	1.93243570e-05	6.84015340e-05	0.00000000e+00
21.64           	2.85299880e-01	1.80663140e-05	1.92165290e-05	7.71469400e-05	0.00000000e+00
21.645          	8.52829850e-02	1.80072370e-05	1.91086860e-05	6.14014390e-05	0.00000000e+00
21.65           	2.29991250e-01	1.79480870e-05	1.90008350e-05	1.61215340e-04	0.00000000e+00
21.655          	3.17312350e-01	1.78888590e-05	1.88929690e-05	7.38369530e-05	0.00000000e+00
21.66           	1.04327700e-01	1.78295590e-05	1.87850980e-05	6.62959270e-05	0.00000000e+00
21.665          	2.32721810e-01	1.77701830e-05	1.86772160e-05	7.06644420e-05	0.00000000e+00
21.67           	1.47668920e-01	1.77107380e-05	1.85693310e-05	7.54264900e-05	0.00000000e+00
21.675          	7.76579760e-02	1.76512200e-05	1.84614400e-05	4.88156690e-05	0.00000000e+00
21.68           	2.52979330e-01	1.75916290e-05	1.83535420e-05	7.89945720e-05	0.00000000e+00
21.685          	3.04480250e-01	1.75319710e-05	1.82456470e-05	6.69102140e-05	0.00000000e+00
21.69           	8.44264050e-02	1.74722430e-05	1.81377490e-05	4.89297750e-05	0.00000000e+00
21.695          	1.14814040e-01	1.74124480e-05	1.80298520e-05	6.54123960e-05	0.00000000e+00
21.7            	2.13828640e-01	1.73525830e-05	1.79219550e-05	9.12818240e-05	0.00000000e+00
21.705          	7.65973650e-02	1.72926530e-05	1.78140630e-05	8.69110090e-05	0.00000000e+00
21.71           	1.31030620e-01	1.72326600e-05	1.77061790e-05	5.41156050e-05	0.00000000e+00
21.715          	1.59417860e-01	1.71726000e-05	1.75982970e-05	6.72001890e-05	0.00000000e+00
21.72           	1.75286590e-01	1.71124800e-05	1.74904270e-05	6.41144120e-05	0.00000000e+00
21.725          	3.43382000e-01	1.70522960e-05	1.73825650e-05	7.60265980e-05	0.00000000e+00
21.73           	2.37170710e-01	1.69920490e-05	1.72747100e-05	6.86383640e-05	0.00000000e+00
21.735          	2.42989610e-01	1.69317420e-05	1.71668690e-05	7.43253230e-05	0.00000000e+00
21.74           	2.93995150e-01	1.68713760e-05	1.70590420e-05	8.69221050e-05	0.00000000e+00
21.745          	1.38417550e-01	1.68109530e-05	1.69512320e-05	6.54380060e-05	0.00000000e+00
21.75           	2.86801540e-01	1.67504690e-05	1.68434340e-05	5.43329050e-05	0.00000000e+00
21.755          	2.42058830e-01	1.66899280e-05	1.67356550e-05	6.85538400e-05	0.00000000e+00
21.76           	2.44953180e-01	1.66293350e-05	1.66278970e-05	8.50629400e-05	0.00000000e+00
21.765          	1.38516440e-01	1.65686820e-05	1.65201560e-05	7.53852790e-05	0.00000000e+00
21.77           	1.31438950e-01	1.65079790e-05	1.64124400e-05	5.27905380e-05	0.00000000e+00
21.775          	2.78908370e-01	1.64472190e-05	1.63047440e-05	8.52806850e-05	0.00000000e+00
21.78           	1.08747050e-01	1.63864070e-05	1.61970720e-05	9.04274140e-05	0.00000000e+00
21.785          	1.00305460e-01	1.63255450e-05	1.60894270e-05	1.19339830e-04	0.00000000e+00
21.79           	5.40596640e-02	1.62646320e-05	1.59818090e-05	7.76734190e-05	0.00000000e+00
21.795          	1.72856580e-01	1.62036690e-05	1.58742200e-05	4.84731120e-05	0.00000000e+00
21.8            	2.40444950e-01	1.61426590e-05	1.57666620e-05	5.99938740e-05	0.00000000e+00
21.805          	1.21727760e-01	1.60815980e-05	1.56591320e-05	7.81283960e-05	0.00000000e+00
21.81           	9.36494450e-02	1.60204930e-05	1.55516380e-05	4.76737400e-05	0.00000000e+00
21.815          	7.73938640e-02	1.59593410e-05	1.54441760e-05	7.27982250e-05	0.00000000e+00
21.82           	1.54397020e-01	1.58981410e-05	1.53367460e-05	5.82951400e-05	0.00000000e+00
21.825          	8.22139850e-02	1.58369000e-05	1.52293570e-05	6.23664830e-05	0.00000000e+00
21.83           	1.29807690e-01	1.57756120e-05	1.51220020e-05	7.78462910e-05	0.00000000e+00
21.835          	1.71491510e-01	1.57142850e-05	1.50146890e-05	1.31003430e-04	0.00000000e+00
21.84           	1.46589890e-01	1.56529150e-05	1.49074150e-05	7.33915010e-05	0.00000000e+00
21.845          	1.46913950e-01	1.55915020e-05	1.48001810e-05	6.77531340e-05	0.00000000e+00
21.85           	1.44899620e-01	1.55300520e-05	1.46929940e-05	7.28145740e-05	0.00000000e+00
21.855          	1.50920050e-01	1.54685610e-05	1.45858470e-05	6.02565510e-05	0.00000000e+00
21.86           	1.51029040e-01	1.54070320e-05	1.44787470e-05	6.88154530e-05	0.00000000e+00
21.865          	1.45631150e-01	1.53454680e-05	1.43716970e-05	1.14006680e-04	0.00000000e+00
21.87           	8.11687780e-02	1.52838660e-05	1.42646930e-05	7.15040830e-05	0.00000000e+00
21.875          	1.76891160e-01	1.52222270e-05	1.41577370e-05	8.62972410e-05	0.00000000e+00
21.88           	1.76695530e-01	1.51605540e-05	1.40508320e-05	5.61349430e-05	0.00000000e+00
21.885          	1.87865280e-01	1.50988490e-05	1.39439820e-05	7.27185760e-05	0.00000000e+00
21.89           	2.06423230e-01	1.50371100e-05	1.38371840e-05	9.34805050e-05	0.00000000e+00
21.895          	1.56384390e-01	1.49753370e-05	1.37304380e-05	1.14650600e-04	0.00000000e+00
21.9            	8.58622340e-02	1.49135360e-05	1.36237520e-05	8.12101690e-05	0.00000000e+00
21.905          	1.92067600e-01	1.48517020e-05	1.35171190e-05	7.64682330e-05	0.00000000e+00
21.91           	4.81836620e-01	1.47898410e-05	1.34105480e-05	7.12337780e-05	0.00000000e+00
21.915          	2.55721170e-01	1.47279500e-05	1.33040360e-05	6.87328130e-05	0.00000000e+00
21.92           	1.46709890e-01	1.46660310e-05	1.31975840e-05	8.09160910e-05	0.00000000e+00
21.925          	9.87376460e-02	1.46040840e-05	1.30911930e-05	6.38397710e-05	0.00000000e+00
21.93           	1.23285840e-01	1.45421120e-05	1.29848670e-05	1.07041410e-04	0.00000000e+00
21.935          	8.59643420e-02	1.44801150e-05	1.28786050e-05	6.40122120e-05	0.00000000e+00
21.94           	1.18891840e-01	1.44180950e-05	1.27724110e-05	9.19182930e-05	0.00000000e+00
21.945          	7.27419160e-02	1.43560490e-05	1.26662820e-05	5.34734790e-05	0.00000000e+00
21.95           	9.32376230e-02	1.42939820e-05	1.25602220e-05	8.71744020e-05	0.00000000e+00
21.955          	7.33223680e-02	1.42318940e-05	1.24542330e-05	6.92759770e-05	0.00000000e+00
21.96           	1.38829070e-01	1.41697830e-05	1.23483130e-05	9.52278360e-05	0.00000000e+00
21.965          	1.20879080e-01	1.41076520e-05	1.22424660e-05	1.29436080e-04	0.00000000e+00
21.97           	2.51457950e-01	1.40455030e-05	1.21366920e-05	7.26832350e-05	0.00000000e+00
21.975          	1.09170610e-01	1.39833370e-05	1.20309950e-05	6.16815430e-05	0.00000000e+00
21.98           	8.87494450e-02	1.39211520e-05	1.19253720e-05	7.88988470e-05	0.00000000e+00
21.985          	1.63507310e-01	1.38589480e-05	1.18198240e-05	1.20680250e-04	0.00000000e+00
21.99           	1.06823010e-01	1.37967320e-05	1.17143580e-05	5.61770550e-05	0.00000000e+00
21.995          	4.78974750e-01	1.37344980e-05	1.16089680e-05	1.48050720e-04	0.00000000e+00
22              	1.13800190e-01	1.36722500e-05	1.15036600e-05	7.35136770e-05	0.00000000e+00
22.005          	3.35180030e-01	1.36099910e-05	1.13984350e-05	7.69371050e-05	0.00000000e+00
22.01           	1.71911630e-01	1.35477170e-05	1.12932910e-05	9.72479350e-05	0.00000000e+00
22.015          	1.30495840e-01	1.34854320e-05	1.11882320e-05	7.82968480e-05	0.00000000e+00
22.02           	1.84193610e-01	1.34231360e-05	1.10832580e-05	1.22199360e-04	0.00000000e+00
22.025          	2.02189940e-01	1.33608320e-05	1.09783730e-05	9.64714130e-05	0.00000000e+00
22.03           	3.83649260e-01	1.32985160e-05	1.08735730e-05	1.17332850e-04	0.00000000e+00
22.035          	1.28379860e-01	1.32361930e-05	1.07688620e-05	1.79342270e-04	0.00000000e+00
22.04           	3.08197790e-01	1.31738640e-05	1.06642430e-05	1.42297130e-04	0.00000000e+00
22.045          	7.80829350e-02	1.31115270e-05	1.05597150e-05	9.34152160e-05	0.00000000e+00
22.05           	7.02262010e-02	1.30491830e-05	1.04552790e-05	1.73218060e-04	0.00000000e+00
22.055          	1.58336940e-01	1.29868350e-05	1.03509360e-05	1.37560290e-04	0.00000000e+00
22.06           	5.15573540e-01	1.29244820e-05	1.02466880e-05	1.46135440e-04	0.00000000e+00
22.065          	5.30724980e-01	1.28621240e-05	1.01425350e-05	1.17645690e-04	0.00000000e+00
22.07           	1.49623160e-01	1.27997650e-05	1.00384790e-05	1.61476760e-04	0.00000000e+00
22.075          	1.91206620e-01	1.27374050e-05	9.93452360e-06	1.34724860e-04	0.00000000e+00
22.08           	1.59252470e-01	1.26750420e-05	9.83066520e-06	1.24192460e-04	0.00000000e+00
22.085          	1.41072270e-01	1.26126810e-05	9.72690920e-06	1.78274750e-04	0.00000000e+00
22.09           	1.07104580e-01	1.25503180e-05	9.62325290e-06	1.36083330e-04	0.00000000e+00
22.095          	4.11642760e-01	1.24879580e-05	9.51970000e-06	1.59739070e-04	0.00000000e+00
22.1            	1.10213590e-01	1.24255990e-05	9.41625110e-06	1.09367260e-04	0.00000000e+00
22.105          	2.85335830e-01	1.23632440e-05	9.31290730e-06	1.95950780e-04	0.00000000e+00
22.11           	1.14744480e-01	1.23008940e-05	9.20967080e-06	1.71347670e-04	0.00000000e+00
22.115          	9.97362090e-02	1.22385470e-05	9.10653960e-06	1.67002560e-04	0.00000000e+00
22.12           	7.17411960e-02	1.21762050e-05	9.00351730e-06	1.74238410e-04	0.00000000e+00
22.125          	2.08265040e-01	1.21138690e-05	8.90060450e-06	1.56552290e-04	0.00000000e+00
22.13           	1.41422450e-01	1.20515420e-05	8.79780350e-06	1.44310770e-04	0.00000000e+00
22.135          	1.75784930e-01	1.19892210e-05	8.69511220e-06	1.90835530e-04	0.00000000e+00
22.14           	1.04303580e-01	1.19269090e-05	8.59253540e-06	8.69221250e-05	0.00000000e+00
22.145          	1.18117580e-01	1.18646070e-05	8.49007170e-06	1.03131430e-04	0.00000000e+00
22.15           	3.71973480e-01	1.18023130e-05	8.38772170e-06	1.31206930e-04	0.00000000e+00
22.155          	1.17088840e-01	1.17400320e-05	8.28548940e-06	1.73880330e-04	0.00000000e+00
22.16           	2.23523640e-01	1.16777610e-05	8.18337370e-06	1.14542540e-04	0.00000000e+00
22.165          	2.29519160e-01	1.16155040e-05	8.08137600e-06	7.88945620e-05	0.00000000e+00
22.17           	2.01746860e-01	1.15532590e-05	7.97949740e-06	1.13060920e-04	0.00000000e+00
22.175          	1.97060520e-01	1.14910280e-05	7.87773910e-06	1.10010760e-04	0.00000000e+00
22.18           	2.12485020e-01	1.14288120e-05	7.77610220e-06	1.12558480e-04	0.00000000e+00
22.185          	1.04913770e-01	1.13666110e-05	7.67458760e-06	8.31386820e-05	0.00000000e+00
22.19           	1.02361860e-01	1.13044250e-05	7.57319560e-06	6.27405200e-05	0.00000000e+00
22.195          	9.00953650e-02	1.12422570e-05	7.47192870e-06	8.05490350e-05	0.00000000e+00
22.2            	1.34932380e-01	1.11801080e-05	7.37078760e-06	1.24251980e-04	0.00000000e+00
22.205          	1.84794700e-01	1.11179760e-05	7.26977330e-06	6.85063680e-05	0.00000000e+00
22.21           	3.68218880e-01	1.10558660e-05	7.16888750e-06	9.44725360e-05	0.00000000e+00
22.215          	1.54966350e-01	1.09937750e-05	7.06812970e-06	5.00022690e-05	0.00000000e+00
22.22           	9.25900470e-02	1.09317030e-05	6.96750060e-06	5.01900660e-05	0.00000000e+00
22.225          	1.15119830e-01	1.08696530e-05	6.86700280e-06	1.01097130e-04	0.00000000e+00
22.23           	7.07865460e-02	1.08076260e-05	6.76663690e-06	6.64105800e-05	0.00000000e+00
22.235          	1.49220130e-01	1.07456220e-05	6.66640390e-06	9.87782360e-05	0.00000000e+00
22.24           	1.51431400e-01	1.06836430e-05	6.56630550e-06	1.31231540e-04	0.00000000e+00
22.245          	1.37435470e-01	1.06216860e-05	6.46634060e-06	6.19373660e-05	0.00000000e+00
22.25           	1.15697130e-01	1.05597560e-05	6.36651180e-06	8.65234200e-05	0.00000000e+00
22.255          	3.46480410e-01	1.04978520e-05	6.26682000e-06	5.08799090e-05	0.00000000e+00
22.26           	8.98915530e-02	1.04359740e-05	6.16726610e-06	4.34077810e-05	0.00000000e+00
22.265          	1.33018960e-01	1.03741250e-05	6.06785180e-06	6.84468260e-05	0.00000000e+00
22.27           	1.01045320e-01	1.03123040e-05	5.96857680e-06	1.01610670e-04	0.00000000e+00
22.275          	4.61380290e-01	1.02505120e-05	5.86944240e-06	5.89252210e-05	0.00000000e+00
22.28           	1.36064440e-01	1.01887480e-05	5.77044900e-06	6.45769060e-05	0.00000000e+00
22.285          	6.79095290e-02	1.01270150e-05	5.67159890e-06	8.61616970e-05	0.00000000e+00
22.29           	2.81356760e-01	1.00653130e-05	5.57289270e-06	6.06743980e-05	0.00000000e+00
22.295          	4.52675880e-01	1.00036440e-05	5.47433120e-06	1.10590850e-04	0.00000000e+00
22.3            	3.18640630e-01	9.94200830e-06	5.37591620e-06	8.88954790e-05	0.00000000e+00
22.305          	1.87165610e-01	9.88040420e-06	5.27764660e-06	1.55950730e-04	0.00000000e+00
22.31           	2.57371650e-01	9.81883460e-06	5.17952500e-06	9.57878800e-05	0.00000000e+00
22.315          	9.89892840e-02	9.75730000e-06	5.08155200e-06	1.10022950e-04	0.00000000e+00
22.32           	2.20693460e-01	9.69580200e-06	4.98372920e-06	9.26449290e-05	0.00000000e+00
22.325          	1.73730560e-01	9.63433850e-06	4.88605590e-06	1.10109700e-04	0.00000000e+00
22.33           	1.33279520e-01	9.57291340e-06	4.78853480e-06	1.10389010e-04	0.00000000e+00
22.335          	2.28752820e-01	9.51152550e-06	4.69116580e-06	1.26127450e-04	0.00000000e+00
22.34           	2.02342980e-01	9.45017450e-06	4.59394930e-06	1.03633540e-04	0.00000000e+00
22.345          	2.29913030e-01	9.38886440e-06	4.49688810e-06	7.98866960e-05	0.00000000e+00
22.35           	1.40781520e-01	9.32759360e-06	4.39998170e-06	1.06211790e-04	0.00000000e+00
22.355          	9.44581450e-02	9.26636190e-06	4.30323070e-06	6.89534960e-05	0.00000000e+00
22.36           	8.30286450e-02	9.20517200e-06	4.20663700e-06	1.03615910e-04	0.00000000e+00
22.365          	1.58087580e-01	9.14402530e-06	4.11020190e-06	8.65995580e-05	0.00000000e+00
22.37           	2.08428940e-01	9.08291940e-06	4.01392480e-06	1.87635590e-04	0.00000000e+00
22.375          	1.78029720e-01	9.02185830e-06	3.91780820e-06	1.07571270e-04	0.00000000e+00
22.38           	8.81033060e-02	8.96084060e-06	3.82185190e-06	6.65662820e-05	0.00000000e+00
22.385          	8.87580730e-02	8.89986620e-06	3.72605660e-06	1.35827950e-04	0.00000000e+00
22.39           	1.30582050e-01	8.83893890e-06	3.63042440e-06	1.49102020e-04	0.00000000e+00
22.395          	3.01892950e-01	8.77805600e-06	3.53495490e-06	9.46958370e-05	0.00000000e+00
22.4            	1.30806770e-01	8.71722020e-06	3.43964990e-06	1.11696230e-04	0.00000000e+00
22.405          	8.78883360e-02	8.65643200e-06	3.34451000e-06	1.28407980e-04	0.00000000e+00
22.41           	3.15270360e-01	8.59569190e-06	3.24953610e-06	9.44945920e-05	0.00000000e+00
22.415          	1.40805070e-01	8.53500150e-06	3.15472940e-06	9.13869870e-05	0.00000000e+00
22.42           	1.21040960e-01	8.47435970e-06	3.06009020e-06	9.57825990e-05	0.00000000e+00
22.425          	2.61688370e-01	8.41376780e-06	2.96561950e-06	1.05341330e-04	0.00000000e+00
22.43           	5.86615010e-01	8.35322550e-06	2.87131770e-06	6.95565790e-05	0.00000000e+00
22.435          	2.65357740e-01	8.29273530e-06	2.77718660e-06	7.52866970e-05	0.00000000e+00
22.44           	8.64143700e-02	8.23229820e-06	2.68322700e-06	1.26487300e-04	0.00000000e+00
22.445          	1.45988150e-01	8.17191320e-06	2.58943920e-06	8.25066500e-05	0.00000000e+00
22.45           	5.05892280e-01	8.11158050e-06	2.49582390e-06	7.59110840e-05	0.00000000e+00
22.455          	8.17838110e-02	8.05130230e-06	2.40238240e-06	6.80777880e-05	0.00000000e+00
22.46           	1.78263100e-01	7.99107990e-06	2.30911590e-06	7.31877180e-05	0.00000000e+00
22.465          	1.94148650e-01	7.93091140e-06	2.21602420e-06	6.41431430e-05	0.00000000e+00
22.47           	2.49818670e-01	7.87079920e-06	2.12310890e-06	6.43658930e-05	0.00000000e+00
22.475          	1.13463970e-01	7.81074390e-06	2.03037060e-06	1.18712980e-04	0.00000000e+00
22.48           	1.66488390e-01	7.75074670e-06	1.93781050e-06	6.11522670e-05	0.00000000e+00
22.485          	9.12082620e-02	7.69080680e-06	1.84542880e-06	8.72293220e-05	0.00000000e+00
22.49           	1.30703090e-01	7.63092530e-06	1.75322660e-06	7.22281560e-05	0.00000000e+00
22.495          	4.82533000e-01	7.57110210e-06	1.66120440e-06	1.11308100e-04	0.00000000e+00
22.5            	1.43392400e-01	7.51134010e-06	1.56936360e-06	7.76184510e-05	0.00000000e+00
22.505          	1.47431300e-01	7.45163730e-06	1.47770450e-06	5.84993620e-05	0.00000000e+00
22.51           	1.01302980e-01	7.39199600e-06	1.38622810e-06	8.74804920e-05	0.00000000e+00
22.515          	1.21058310e-01	7.33241660e-06	1.29493520e-06	5.99969210e-05	0.00000000e+00
22.52           	3.09774880e-01	7.27290050e-06	1.20382680e-06	8.43077040e-05	0.00000000e+00
22.525          	1.40605380e-01	7.21344600e-06	1.11290320e-06	5.10404210e-05	0.00000000e+00
22.53           	7.01727050e-02	7.15405550e-06	1.02216550e-06	8.90828160e-05	0.00000000e+00
22.535          	1.50180180e-01	7.09472930e-06	9.31614450e-07	7.86047240e-05	0.00000000e+00
22.54           	2.40806490e-01	7.03511510e-06	5.31549760e-07	1.03706110e-04	0.00000000e+00
22.545          	1.38269070e-01	6.97548720e-06	4.72056320e-07	9.70231550e-05	0.00000000e+00
22.55           	6.16151740e-02	6.91593740e-06	4.12636840e-07	9.36128010e-05	0.00000000e+00
22.555          	1.21410870e-01	6.85649850e-06	3.53290890e-07	7.26171790e-05	0.00000000e+00
22.56           	8.93557680e-02	6.79717880e-06	2.94018140e-07	9.17652280e-05	0.00000000e+00
22.565          	1.08410720e-01	6.73798130e-06	2.34818340e-07	1.51326840e-04	0.00000000e+00
22.57           	2.21018760e-01	6.67890880e-06	1.75691300e-07	5.64186100e-05	0.00000000e+00
22.575          	1.16402470e-01	6.61995930e-06	1.16636850e-07	1.11901660e-04	0.00000000e+00
22.58           	1.00140410e-01	6.56113490e-06	5.76548380e-08	9.27040270e-05	0.00000000e+00
22.585          	1.29003180e-01	6.50243310e-06	2.62059660e-08	8.15127650e-05	0.00000000e+00
22.59           	2.66525720e-01	6.44385610e-06	7.66853960e-08	5.47944610e-05	0.00000000e+00
22.595          	8.53480480e-02	6.38540200e-06	1.34244990e-07	1.12216680e-04	0.00000000e+00
22.6            	2.20123600e-01	6.32707020e-06	1.91734390e-07	6.80627470e-05	0.00000000e+00
22.605          	1.27497510e-01	6.26886180e-06	2.49153670e-07	6.63753390e-05	0.00000000e+00
22.61           	1.36728510e-01	6.21077620e-06	3.06502910e-07	5.68676330e-05	0.00000000e+00
22.615          	1.78615120e-01	6.15281390e-06	3.63782210e-07	7.68243290e-05	0.00000000e+00
22.62           	1.98873260e-01	6.09497340e-06	4.20991660e-07	7.39926330e-05	0.00000000e+00
22.625          	3.13530290e-01	6.03725410e-06	4.78131330e-07	1.00463870e-04	0.00000000e+00
22.63           	3.59541810e-01	5.97965770e-06	5.35201320e-07	5.80026450e-05	0.00000000e+00
22.635          	2.46197370e-01	5.92218200e-06	5.92201720e-07	7.51184540e-05	0.00000000e+00
22.64           	1.66025810e-01	5.86482800e-06	6.49772740e-07	5.49555880e-05	0.00000000e+00
22.645          	3.30270010e-01	5.80759600e-06	7.07509160e-07	7.99979260e-05	0.00000000e+00
22.65           	2.74370950e-01	5.75048460e-06	7.65175100e-07	8.48482600e-05	0.00000000e+00
22.655          	8.92517940e-02	5.69349380e-06	8.22770640e-07	9.16098630e-05	0.00000000e+00
22.66           	2.35471610e-01	5.63662290e-06	8.80295880e-07	9.65894290e-05	0.00000000e+00
22.665          	1.00133020e-01	5.57987270e-06	9.37750910e-07	8.10755940e-05	0.00000000e+00
22.67           	1.70805690e-01	5.52324280e-06	9.95135830e-07	7.95696530e-05	0.00000000e+00
22.675          	3.13129920e-01	5.46633920e-06	1.38734060e-06	1.40496290e-04	0.00000000e+00
22.68           	1.50153910e-01	5.40928040e-06	1.57021740e-06	1.11936260e-04	0.00000000e+00
22.685          	2.26588770e-01	5.35218570e-06	1.68723690e-06	1.72511440e-04	0.00000000e+00
22.69           	1.49155880e-01	5.29512040e-06	1.78215830e-06	1.08710110e-04	0.00000000e+00
22.695          	1.10827460e-01	5.23811600e-06	1.86957260e-06	1.21174130e-04	0.00000000e+00
22.7            	7.52077100e-02	5.18118580e-06	1.95434440e-06	1.03485840e-04	0.00000000e+00
22.705          	8.81117260e-02	5.12433730e-06	2.03809590e-06	1.46992050e-04	0.00000000e+00
22.71           	1.24977570e-01	5.06757140e-06	2.12136660e-06	1.85905400e-04	0.00000000e+00
22.715          	9.12037290e-02	5.01089060e-06	2.20433680e-06	1.15006730e-04	0.00000000e+00
22.72           	1.25883920e-01	4.95429610e-06	2.28706620e-06	8.64175900e-05	0.00000000e+00
22.725          	1.35080580e-01	4.89778750e-06	2.36960410e-06	1.20413650e-04	0.00000000e+00
22.73           	2.96844660e-01	4.84136500e-06	2.45237580e-06	1.11147330e-04	0.00000000e+00
22.735          	1.37494780e-01	4.78503030e-06	2.53493260e-06	1.52342670e-04	0.00000000e+00
22.74           	1.40946710e-01	4.72878370e-06	2.61727450e-06	1.54825140e-04	0.00000000e+00
22.745          	8.37311430e-02	4.67262600e-06	2.69940130e-06	1.27946120e-04	0.00000000e+00
22.75           	1.54800630e-01	4.61655650e-06	2.78131160e-06	1.31388460e-04	0.00000000e+00
22.755          	1.38127630e-01	4.56057670e-06	2.86300560e-06	1.46576930e-04	0.00000000e+00
22.76           	1.44009980e-01	4.50468700e-06	2.94448240e-06	1.55897510e-04	0.00000000e+00
22.765          	7.82247150e-02	4.44888790e-06	3.02574160e-06	1.58390950e-04	0.00000000e+00
22.77           	1.17504930e-01	4.39317980e-06	3.10678240e-06	1.34255830e-04	0.00000000e+00
22.775          	2.09012400e-01	4.33756330e-06	3.18760430e-06	1.59452920e-04	0.00000000e+00
22.78           	8.05106560e-02	4.28203890e-06	3.26820670e-06	9.32460730e-05	0.00000000e+00
22.785          	5.01433690e-01	4.22660700e-06	3.34858900e-06	1.25098090e-04	0.00000000e+00
22.79           	1.08641230e-01	4.17126820e-06	3.42875060e-06	1.35409840e-04	0.00000000e+00
22.795          	2.60011140e-01	4.11602350e-06	3.50869150e-06	1.66248750e-04	0.00000000e+00
22.8            	1.52313130e-01	4.06087210e-06	3.58840970e-06	1.22299970e-04	0.00000000e+00
22.805          	1.52294810e-01	4.00581590e-06	3.66790630e-06	7.72048800e-05	0.00000000e+00
22.81           	2.70918840e-01	3.95085410e-06	3.74717920e-06	1.07550000e-04	0.00000000e+00
22.815          	1.34378000e-01	3.89598860e-06	3.82622930e-06	7.01223270e-05	0.00000000e+00
22.82           	1.27980820e-01	3.84121840e-06	3.90505460e-06	6.19340350e-05	0.00000000e+00
22.825          	1.33175350e-01	3.78654550e-06	3.98365610e-06	1.18654360e-04	0.00000000e+00
22.83           	9.80866220e-02	3.73196940e-06	4.06203220e-06	1.14889090e-04	0.00000000e+00
22.835          	2.04364490e-01	3.67749070e-06	4.14018260e-06	9.25446510e-05	0.00000000e+00
22.84           	2.13666100e-01	3.62310950e-06	4.21810610e-06	8.11924160e-05	0.00000000e+00
22.845          	9.30782230e-02	3.56882760e-06	4.29580380e-06	1.07296070e-04	0.00000000e+00
22.85           	1.03306140e-01	3.51464440e-06	4.37327410e-06	8.26288250e-05	0.00000000e+00
22.855          	1.86341970e-01	3.46056050e-06	4.45051640e-06	7.48894670e-05	0.00000000e+00
22.86           	6.11078470e-02	3.40657660e-06	4.52753040e-06	8.73393480e-05	0.00000000e+00
22.865          	2.05068460e-01	3.35269260e-06	4.60431510e-06	8.54287170e-05	0.00000000e+00
22.87           	1.39232010e-01	3.29890970e-06	4.68087070e-06	1.45658700e-04	0.00000000e+00
22.875          	2.75144030e-01	3.24522830e-06	4.75719670e-06	6.14096350e-05	0.00000000e+00
22.88           	2.41221660e-01	3.19164890e-06	4.83329300e-06	7.99203860e-05	0.00000000e+00
22.885          	1.22279390e-01	3.13817150e-06	4.90915810e-06	8.09180260e-05	0.00000000e+00
22.89           	4.50252910e-01	3.08479680e-06	4.98479180e-06	7.87878340e-05	0.00000000e+00
22.895          	1.40267620e-01	3.03152510e-06	5.06019360e-06	1.44270340e-04	0.00000000e+00
22.9            	1.55398440e-01	2.97835700e-06	5.13536310e-06	1.41423490e-04	0.00000000e+00
22.905          	1.06197670e-01	2.92529300e-06	5.21029990e-06	1.01763750e-04	0.00000000e+00
22.91           	1.45690060e-01	2.87233310e-06	5.28500270e-06	4.56354570e-05	0.00000000e+00
22.915          	1.17396310e-01	2.81947840e-06	5.35947230e-06	1.23485240e-04	0.00000000e+00
22.92           	1.25838700e-01	2.76672940e-06	5.43370850e-06	7.39719380e-05	0.00000000e+00
22.925          	2.57651890e-01	2.71408610e-06	5.50770970e-06	4.46497290e-05	0.00000000e+00
22.93           	1.00763640e-01	2.66154890e-06	5.58147570e-06	5.15466380e-05	0.00000000e+00
22.935          	1.62562470e-01	2.60911840e-06	5.65500610e-06	6.81456580e-05	0.00000000e+00
22.94           	4.33145900e-01	2.55679500e-06	5.72830040e-06	1.00996530e-04	0.00000000e+00
22.945          	1.67238460e-01	2.50457920e-06	5.80135830e-06	7.28256760e-05	0.00000000e+00
22.95           	7.75833430e-02	2.45247100e-06	5.87417860e-06	4.15530040e-05	0.00000000e+00
22.955          	1.09298610e-01	2.40047180e-06	5.94676280e-06	6.42710100e-05	0.00000000e+00
22.96           	3.89160260e-01	2.34858090e-06	6.01910810e-06	6.05696200e-05	0.00000000e+00
22.965          	8.66656330e-02	2.29679970e-06	6.09121640e-06	1.06406230e-04	0.00000000e+00
22.97           	8.05285610e-02	2.24512810e-06	6.16308570e-06	6.18888680e-05	0.00000000e+00
22.975          	1.54404860e-01	2.19356630e-06	6.23471510e-06	5.72951280e-05	0.00000000e+00
22.98           	2.19196140e-01	2.14211510e-06	6.30610540e-06	6.90393210e-05	0.00000000e+00
22.985          	8.48169000e-02	2.09077510e-06	6.37725690e-06	5.66333990e-05	0.00000000e+00
22.99           	1.38006340e-01	2.03954610e-06	6.44816680e-06	8.61420110e-05	0.00000000e+00
22.995          	1.08949770e-01	1.98842890e-06	6.51883640e-06	9.64050460e-05	0.00000000e+00
23              	7.37683180e-02	1.93742380e-06	6.58926500e-06	6.70942580e-05	0.00000000e+00
23.005          	3.57682450e-01	1.88653140e-06	6.65945210e-06	9.67050760e-05	0.00000000e+00
23.01           	5.24947570e-01	1.83575180e-06	6.72939740e-06	1.34223130e-04	0.00000000e+00
23.015          	1.45308570e-01	1.78508580e-06	6.79910130e-06	7.98731410e-05	0.00000000e+00
23.02           	2.28768560e-01	1.73453320e-06	6.86856110e-06	9.81837440e-05	0.00000000e+00
23.025          	3.72442520e-01	1.68409500e-06	6.93777910e-06	1.39222880e-04	0.00000000e+00
23.03           	1.08342210e-01	1.63377120e-06	7.00675330e-06	1.04789640e-04	0.00000000e+00
23.035          	1.36391790e-01	1.58356230e-06	7.07548350e-06	1.25966900e-04	0.00000000e+00
23.04           	8.91615120e-02	1.53346840e-06	7.14396860e-06	1.05021000e-04	0.00000000e+00
23.045          	1.53849620e-01	1.48349060e-06	7.21221060e-06	8.49868420e-05	0.00000000e+00
23.05           	1.17727460e-01	1.43362850e-06	7.28020650e-06	1.20227380e-04	0.00000000e+00
23.055          	2.00999440e-01	1.38388310e-06	7.34795850e-06	8.79290660e-05	0.00000000e+00
23.06           	1.20896950e-01	1.33425440e-06	7.41546440e-06	1.36909300e-04	0.00000000e+00
23.065          	1.25296030e-01	1.28474290e-06	7.48272420e-06	1.00296470e-04	0.00000000e+00
23.07           	9.70107890e-02	1.23534880e-06	7.54973680e-06	1.32780580e-04	0.00000000e+00
23.075          	8.10044920e-02	1.18607290e-06	7.61650420e-06	1.31565140e-04	0.00000000e+00
23.08           	5.55470830e-02	1.13691510e-06	7.68302430e-06	9.09840130e-05	0.00000000e+00
23.085          	1.92062780e-01	1.08787590e-06	7.74929590e-06	5.89499310e-05	0.00000000e+00
23.09           	1.47135910e-01	1.03895590e-06	7.81532140e-06	9.20191650e-05	0.00000000e+00
23.095          	1.50405460e-01	9.90155170e-07	7.88109850e-06	1.38909030e-04	0.00000000e+00
23.1            	1.06802720e-01	6.12358920e-07	7.94662620e-06	6.60334010e-05	0.00000000e+00
23.105          	1.01537360e-01	5.80935290e-07	8.01190590e-06	8.86448950e-05	0.00000000e+00
23.11           	1.39318480e-01	5.49849010e-07	8.07693690e-06	6.82846790e-05	0.00000000e+00
23.115          	1.05981730e-01	5.19351040e-07	8.14171870e-06	1.07803060e-04	0.00000000e+00
23.12           	1.42065580e-01	4.89994450e-07	8.20625090e-06	5.88993280e-05	0.00000000e+00
23.125          	3.18926450e-01	4.61822720e-07	8.27053330e-06	7.95662580e-05	0.00000000e+00
23.13           	7.79893420e-02	4.35248900e-07	8.33456560e-06	8.19300800e-05	0.00000000e+00
23.135          	1.08346140e-01	4.10209470e-07	8.39834750e-06	6.00771360e-05	0.00000000e+00
23.14           	1.03458500e-01	3.86742900e-07	8.46187860e-06	6.13473440e-05	0.00000000e+00
23.145          	1.14178650e-01	3.64959840e-07	8.52515860e-06	4.84905830e-05	0.00000000e+00
23.15           	9.42252380e-02	3.44914690e-07	8.58818740e-06	4.71168820e-05	0.00000000e+00
23.155          	2.76622870e-01	3.26689710e-07	8.65096460e-06	1.10488220e-04	0.00000000e+00
23.16           	1.47965280e-01	3.10308920e-07	8.71348990e-06	1.17690010e-04	0.00000000e+00
23.165          	4.51759070e-01	2.95804660e-07	8.77576310e-06	8.88294440e-05	0.00000000e+00
23.17           	4.51927880e-01	2.83225040e-07	8.83778390e-06	4.62868280e-05	0.00000000e+00
23.175          	1.22170680e-01	2.72590490e-07	8.89955200e-06	8.11650320e-05	0.00000000e+00
23.18           	1.13750920e-01	2.63894320e-07	8.96106720e-06	7.15262020e-05	0.00000000e+00
23.185          	8.03714270e-02	2.57204500e-07	9.02232920e-06	7.50896180e-05	0.00000000e+00
23.19           	1.79499830e-01	2.52480330e-07	9.08333780e-06	6.93948550e-05	0.00000000e+00
23.195          	1.59923150e-01	2.49781580e-07	9.14409270e-06	5.68584090e-05	0.00000000e+00
23.2            	1.10672110e-01	2.49082500e-07	9.20459370e-06	9.45812910e-05	0.00000000e+00
23.205          	2.27299700e-01	2.50391090e-07	9.26484040e-06	4.71945070e-05	0.00000000e+00
23.21           	3.83919210e-01	2.53703400e-07	9.32483280e-06	9.14413880e-05	0.00000000e+00
23.215          	8.52401130e-02	2.59010720e-07	9.38457050e-06	8.35742350e-05	0.00000000e+00
23.22           	2.31145480e-01	2.66303350e-07	9.44405340e-06	1.52402380e-04	0.00000000e+00
23.225          	4.22885540e-01	2.75547250e-07	9.50328120e-06	8.97979710e-05	0.00000000e+00
23.23           	6.53543450e-02	2.86780120e-07	9.56225360e-06	1.09024850e-04	0.00000000e+00
23.235          	1.21973170e-01	3.00002080e-07	9.62097050e-06	7.30174390e-05	0.00000000e+00
23.24           	2.04605610e-01	3.15095930e-07	9.67943160e-06	8.05724960e-05	0.00000000e+00
23.245          	1.49236920e-01	3.32025290e-07	9.73763680e-06	6.03034840e-05	0.00000000e+00
23.25           	2.84472220e-01	3.50730760e-07	9.79558580e-06	8.79574450e-05	0.00000000e+00
23.255          	1.21746390e-01	3.71157020e-07	9.85327840e-06	7.49710270e-05	0.00000000e+00
23.26           	1.77046200e-01	3.93272510e-07	9.91071440e-06	5.98660910e-05	0.00000000e+00
23.265          	2.57473780e-01	4.17038520e-07	9.96789370e-06	1.01087960e-04	0.00000000e+00
23.27           	1.97165080e-01	4.41959930e-07	1.00248160e-05	1.11524320e-04	0.00000000e+00
23.275          	1.59967080e-01	4.69689880e-07	1.00814810e-05	7.63333820e-05	0.00000000e+00
23.28           	1.60510090e-01	4.97816320e-07	1.01378890e-05	1.01213610e-04	0.00000000e+00
23.285          	1.97255890e-01	5.26898680e-07	1.01940390e-05	1.17210330e-04	0.00000000e+00
23.29           	2.08126060e-01	5.56640060e-07	1.02499320e-05	7.66204010e-05	0.00000000e+00
23.295          	2.07764920e-01	5.86322620e-07	1.03055660e-05	6.98758190e-05	0.00000000e+00
23.3            	3.86013850e-01	6.15946090e-07	1.03609430e-05	1.21920760e-04	0.00000000e+00
23.305          	1.99657010e-01	6.45510210e-07	1.04160620e-05	9.18026070e-05	0.00000000e+00
23.31           	1.13153390e-01	6.75014700e-07	1.04709220e-05	5.74413420e-05	0.00000000e+00
23.315          	9.37417400e-02	7.04459310e-07	1.05255230e-05	5.85110160e-05	0.00000000e+00
23.32           	1.27545730e-01	7.33843770e-07	1.05798660e-05	7.72249770e-05	0.00000000e+00
23.325          	1.14076650e-01	7.63167810e-07	1.06339500e-05	5.20217750e-05	0.00000000e+00
23.33           	1.55822690e-01	7.92431190e-07	1.06877750e-05	1.17476300e-04	0.00000000e+00
23.335          	1.21643050e-01	8.21633650e-07	1.07413410e-05	1.89769840e-04	0.00000000e+00
23.34           	9.89122240e-02	8.50774910e-07	1.07946480e-05	7.30865770e-05	0.00000000e+00
23.345          	3.75976800e-01	8.79854740e-07	1.08476950e-05	1.77061770e-04	0.00000000e+00
23.35           	1.76122940e-01	9.08872880e-07	1.09004830e-05	1.08806760e-04	0.00000000e+00
23.355          	1.13138410e-01	9.37829070e-07	1.09530110e-05	1.06775470e-04	0.00000000e+00
23.36           	1.61886760e-01	9.66723060e-07	1.10052790e-05	8.38317310e-05	0.00000000e+00
23.365          	2.95752640e-01	9.95554610e-07	1.10572870e-05	1.06102400e-04	0.00000000e+00
23.37           	1.06056310e-01	1.35840690e-06	1.11090360e-05	1.14159860e-04	0.00000000e+00
23.375          	1.30793480e-01	1.50396150e-06	1.11605240e-05	7.37621230e-05	0.00000000e+00
23.38           	1.10985880e-01	1.58009040e-06	1.12117530e-05	1.04324580e-04	0.00000000e+00
23.385          	1.05084810e-01	1.63297860e-06	1.12627210e-05	7.63809430e-05	0.00000000e+00
23.39           	2.57175730e-01	1.67802620e-06	1.13134280e-05	9.47317280e-05	0.00000000e+00
23.395          	1.09512650e-01	1.72036800e-06	1.13638730e-05	6.05854080e-05	0.00000000e+00
23.4            	1.08527230e-01	1.76171660e-06	1.14140590e-05	5.22064310e-05	0.00000000e+00
23.405          	1.13732280e-01	1.80264270e-06	1.14639850e-05	7.78408930e-05	0.00000000e+00
23.41           	9.52434590e-02	1.84333620e-06	1.15136500e-05	7.78764580e-05	0.00000000e+00
23.415          	2.27831400e-01	1.88386010e-06	1.15630520e-05	7.79889810e-05	0.00000000e+00
23.42           	9.18123330e-02	1.92423610e-06	1.16121950e-05	9.26055020e-05	0.00000000e+00
23.425          	1.25064300e-01	1.96447040e-06	1.16610750e-05	1.16992130e-04	0.00000000e+00
23.43           	1.70970570e-01	2.00456580e-06	1.17096960e-05	1.36502060e-04	0.00000000e+00
23.435          	2.36578070e-01	2.04452230e-06	1.17580550e-05	1.71130660e-04	0.00000000e+00
23.44           	1.40564140e-01	2.08434020e-06	1.18061520e-05	1.09922070e-04	0.00000000e+00
23.445          	2.03173590e-01	2.12401910e-06	1.18539870e-05	1.50630530e-04	0.00000000e+00
23.45           	1.41268270e-01	2.16355920e-06	1.19015610e-05	1.80010270e-04	0.00000000e+00
23.455          	1.02041210e-01	2.20296030e-06	1.19488740e-05	1.51473090e-04	0.00000000e+00
23.46           	4.04522970e-01	2.24222210e-06	1.19959250e-05	8.05202840e-05	0.00000000e+00
23.465          	8.90091270e-02	2.28134490e-06	1.20427170e-05	8.78617700e-05	0.00000000e+00
23.47           	1.07289650e-01	2.32032770e-06	1.20892460e-05	8.36366070e-05	0.00000000e+00
23.475          	1.17707380e-01	2.35917040e-06	1.21355110e-05	7.32821040e-05	0.00000000e+00
23.48           	2.20628450e-01	2.39787320e-06	1.21815150e-05	8.12919720e-05	0.00000000e+00
23.485          	1.57124120e-01	2.43643590e-06	1.22272580e-05	6.41989090e-05	0.00000000e+00
23.49           	2.21140140e-01	2.47485830e-06	1.22727390e-05	7.08242540e-05	0.00000000e+00
23.495          	1.69147520e-01	2.51314050e-06	1.23179600e-05	6.03415150e-05	0.00000000e+00
23.5            	1.03947620e-01	2.55128180e-06	1.23629180e-05	5.00921630e-05	0.00000000e+00
23.505          	8.37280270e-02	2.58928210e-06	1.24076140e-05	7.45894870e-05	0.00000000e+00
23.51           	2.03174180e-01	2.62714100e-06	1.24520460e-05	5.28662240e-05	0.00000000e+00
23.515          	1.43039010e-01	2.66485920e-06	1.24962190e-05	8.75257910e-05	0.00000000e+00
23.52           	1.78246860e-01	2.70243560e-06	1.25401280e-05	6.59334870e-05	0.00000000e+00
23.525          	1.07191670e-01	2.73987100e-06	1.25837770e-05	8.90009200e-05	0.00000000e+00
23.53           	7.87828510e-02	2.77716410e-06	1.26271620e-05	6.59006810e-05	0.00000000e+00
23.535          	1.89162780e-01	2.81431560e-06	1.26702850e-05	5.79464930e-05	0.00000000e+00
23.54           	1.12251950e-01	2.85132510e-06	1.27131470e-05	8.99106330e-05	0.00000000e+00
23.545          	8.18439520e-02	2.88819290e-06	1.27557490e-05	7.65860290e-05	0.00000000e+00
23.55           	1.08260630e-01	2.92491820e-06	1.27980880e-05	8.35669640e-05	0.00000000e+00
23.555          	1.45124540e-01	2.96150090e-06	1.28401640e-05	1.17016080e-04	0.00000000e+00
23.56           	3.37361890e-01	2.99794100e-06	1.28819790e-05	1.03025820e-04	0.00000000e+00
23.565          	2.03008500e-01	3.03423790e-06	1.29235300e-05	7.49789460e-05	0.00000000e+00
23.57           	1.79968080e-01	3.07039260e-06	1.29648210e-05	7.65530040e-05	0.00000000e+00
23.575          	2.41854340e-01	3.10640410e-06	1.30058510e-05	6.13738920e-05	0.00000000e+00
23.58           	1.23648860e-01	3.14227250e-06	1.30466180e-05	9.33185670e-05	0.00000000e+00
23.585          	1.75200780e-01	3.17799750e-06	1.30871230e-05	8.43230060e-05	0.00000000e+00
23.59           	1.11134290e-01	3.21357860e-06	1.31273650e-05	1.08374420e-04	0.00000000e+00
23.595          	4.40275300e-01	3.24901650e-06	1.31673460e-05	6.78011280e-05	0.00000000e+00
23.6            	2.60674610e-01	3.28431080e-06	1.32070660e-05	8.11142090e-05	0.00000000e+00
23.605          	4.52240530e-01	3.31946130e-06	1.32465240e-05	1.23744140e-04	0.00000000e+00
23.61           	1.61983240e-01	3.35446790e-06	1.32857210e-05	6.34564980e-05	0.00000000e+00
23.615          	1.37996930e-01	3.38933080e-06	1.33246580e-05	7.54223120e-05	0.00000000e+00
23.62           	2.05062170e-01	3.42404890e-06	1.33633310e-05	8.87315590e-05	0.00000000e+00
23.625          	4.34741800e-01	3.45862290e-06	1.34017430e-05	6.51429550e-05	0.00000000e+00
23.63           	2.21058950e-01	3.49305300e-06	1.34398950e-05	1.06451780e-04	0.00000000e+00
23.635          	1.65267480e-01	3.52733790e-06	1.34777840e-05	6.41703530e-05	0.00000000e+00
23.64           	9.87063200e-02	3.56147830e-06	1.35154120e-05	3.99098260e-05	0.00000000e+00
23.645          	1.32832260e-01	3.59547410e-06	1.35527790e-05	4.73441370e-05	0.00000000e+00
23.65           	3.68357920e-01	3.62932500e-06	1.35898860e-05	5.23982880e-05	0.00000000e+00
23.655          	3.19349340e-01	3.66303150e-06	1.36267330e-05	1.11785480e-04	0.00000000e+00
23.66           	9.06878530e-02	3.69659270e-06	1.36633180e-05	4.69634200e-05	0.00000000e+00
23.665          	2.60777930e-01	3.73000810e-06	1.36996400e-05	5.66407820e-05	0.00000000e+00
23.67           	1.43765710e-01	3.76327850e-06	1.37357020e-05	6.21366540e-05	0.00000000e+00
23.675          	3.28071620e-01	3.79640370e-06	1.37715040e-05	1.00267400e-04	0.00000000e+00
23.68           	2.70357640e-01	3.82938350e-06	1.38070450e-05	1.09892860e-04	0.00000000e+00
23.685          	1.09021300e-01	3.86221780e-06	1.38423270e-05	8.81463940e-05	0.00000000e+00
23.69           	2.66560800e-01	3.89490700e-06	1.38773490e-05	9.09876480e-05	0.00000000e+00
23.695          	2.13475910e-01	3.92744960e-06	1.39121080e-05	7.33861430e-05	0.00000000e+00
23.7            	1.29180640e-01	3.95984670e-06	1.39466080e-05	4.51401190e-05	0.00000000e+00
23.705          	3.07713370e-01	3.99209850e-06	1.39808500e-05	9.10892660e-05	0.00000000e+00
23.71           	1.27826310e-01	4.02420350e-06	1.40148300e-05	4.58652060e-05	0.00000000e+00
23.715          	1.15747310e-01	4.05616320e-06	1.40485510e-05	6.75635760e-05	0.00000000e+00
23.72           	1.25316240e-01	4.08797660e-06	1.40820130e-05	8.10237670e-05	0.00000000e+00
23.725          	1.48792280e-01	4.11964370e-06	1.41152140e-05	8.33510190e-05	0.00000000e+00
23.73           	9.47907830e-02	4.15116450e-06	1.41481560e-05	6.47611070e-05	0.00000000e+00
23.735          	1.14586310e-01	4.18253840e-06	1.41808370e-05	6.31980040e-05	0.00000000e+00
23.74           	2.05790700e-01	4.21376690e-06	1.42132610e-05	7.94229520e-05	0.00000000e+00
23.745          	1.40008780e-01	4.24484810e-06	1.42454240e-05	1.02120210e-04	0.00000000e+00
23.75           	8.18453440e-02	4.27578360e-06	1.42773310e-05	6.61005960e-05	0.00000000e+00
23.755          	1.50995320e-01	4.30657160e-06	1.43089760e-05	5.01235630e-05	0.00000000e+00
23.76           	1.71234050e-01	4.33721340e-06	1.43403630e-05	6.12982440e-05	0.00000000e+00
23.765          	1.24885960e-01	4.36770850e-06	1.43714930e-05	7.45992420e-05	0.00000000e+00
23.77           	1.39227490e-01	4.39805740e-06	1.44023660e-05	9.92222090e-05	0.00000000e+00
23.775          	4.10805520e-01	4.42825910e-06	1.44329790e-05	6.23281680e-05	0.00000000e+00
23.78           	2.05468980e-01	4.45831390e-06	1.44633340e-05	5.07100000e-05	0.00000000e+00
23.785          	2.99181230e-01	4.48822120e-06	1.44934290e-05	7.63739340e-05	0.00000000e+00
23.79           	2.27160380e-01	4.51798240e-06	1.45232700e-05	8.28916080e-05	0.00000000e+00
23.795          	2.03697980e-01	4.54759570e-06	1.45528500e-05	8.23797380e-05	0.00000000e+00
23.8            	5.85205830e-02	4.57706230e-06	1.45821740e-05	7.37776950e-05	0.00000000e+00
23.805          	2.77072530e-01	4.60638190e-06	1.46112410e-05	1.07502150e-04	0.00000000e+00
23.81           	1.01578850e-01	4.63555440e-06	1.46400510e-05	1.12011560e-04	0.00000000e+00
23.815          	1.36205100e-01	4.66457980e-06	1.46686040e-05	1.32176660e-04	0.00000000e+00
23.82           	1.15444890e-01	4.69345850e-06	1.46969030e-05	8.39852520e-05	0.00000000e+00
23.825          	3.22562080e-01	4.72218960e-06	1.47249440e-05	8.06963340e-05	0.00000000e+00
23.83           	1.26371220e-01	4.75077320e-06	1.47527280e-05	1.06062200e-04	0.00000000e+00
23.835          	2.43306680e-01	4.77920960e-06	1.47802550e-05	7.02794050e-05	0.00000000e+00
23.84           	1.33092010e-01	4.80749850e-06	1.48075270e-05	7.86186820e-05	0.00000000e+00
23.845          	3.48400340e-01	4.83564010e-06	1.48345430e-05	8.59828870e-05	0.00000000e+00
23.85           	1.00005400e-01	4.86363370e-06	1.48613020e-05	1.21292900e-04	0.00000000e+00
23.855          	1.80185280e-01	4.89148100e-06	1.48878080e-05	1.09267440e-04	0.00000000e+00
23.86           	9.17159900e-02	4.91918050e-06	1.49140590e-05	1.22759230e-04	0.00000000e+00
23.865          	1.40041060e-01	4.94673250e-06	1.49400540e-05	1.23928230e-04	0.00000000e+00
23.87           	2.64001970e-01	4.97413630e-06	1.49657920e-05	9.97233590e-05	0.00000000e+00
23.875          	8.47318140e-02	5.00139310e-06	1.49912780e-05	1.23006130e-04	0.00000000e+00
23.88           	2.42963820e-01	5.02850260e-06	1.50165090e-05	7.37095550e-05	0.00000000e+00
23.885          	1.48452270e-01	5.05546520e-06	1.50414880e-05	9.36655340e-05	0.00000000e+00
23.89           	7.46305940e-02	5.08227930e-06	1.50662110e-05	9.17753280e-05	0.00000000e+00
23.895          	1.63290920e-01	5.10894610e-06	1.50906810e-05	1.20816230e-04	0.00000000e+00
23.9            	8.55934480e-02	5.13546550e-06	1.51148970e-05	1.19640490e-04	0.00000000e+00
23.905          	2.66534670e-01	5.16183810e-06	1.51388620e-05	1.45838060e-04	0.00000000e+00
23.91           	3.47678970e-01	5.18806280e-06	1.51625740e-05	1.03781990e-04	0.00000000e+00
23.915          	1.15495350e-01	5.21413980e-06	1.51860320e-05	9.25454880e-05	0.00000000e+00
23.92           	1.18734420e-01	5.24006850e-06	1.52092350e-05	1.38705240e-04	0.00000000e+00
23.925          	2.25176350e-01	5.26585020e-06	1.52321880e-05	1.31034050e-04	0.00000000e+00
23.93           	1.26512380e-01	5.29148520e-06	1.52548910e-05	1.23667940e-04	0.00000000e+00
23.935          	4.26998180e-01	5.31697160e-06	1.52773390e-05	1.37821400e-04	0.00000000e+00
23.94           	2.14026690e-01	5.34231160e-06	1.52995380e-05	1.72340390e-04	0.00000000e+00
23.945          	5.78086340e-02	5.36750300e-06	1.53214840e-05	1.62517490e-04	0.00000000e+00
23.95           	1.29385230e-01	5.39254800e-06	1.53431810e-05	1.94759580e-04	0.00000000e+00
23.955          	2.28324610e-01	5.41744460e-06	1.53646240e-05	1.97132760e-04	0.00000000e+00
23.96           	2.29319020e-01	5.44219400e-06	1.53858190e-05	1.87394270e-04	0.00000000e+00
23.965          	2.86433990e-01	5.46679620e-06	1.54067630e-05	2.05885470e-04	0.00000000e+00
23.97           	1.63279900e-01	5.49125100e-06	1.54274570e-05	1.91563530e-04	0.00000000e+00
23.975          	1.67342050e-01	5.51555920e-06	1.54479040e-05	1.54576990e-04	0.00000000e+00
23.98           	1.48748060e-01	5.53971960e-06	1.54681000e-05	2.17652080e-04	0.00000000e+00
23.985          	1.10176350e-01	5.56373260e-06	1.54880460e-05	1.35099880e-04	0.00000000e+00
23.99           	6.14074810e-02	5.58759820e-06	1.55077440e-05	1.70239150e-04	0.00000000e+00
23.995          	1.20286080e-01	5.61131590e-06	1.55271910e-05	1.29294890e-04	0.00000000e+00
24              	2.48157300e-01	5.63488680e-06	1.55463910e-05	1.47630040e-04	0.00000000e+00
24.005          	1.38819390e-01	5.65831140e-06	1.55653450e-05	1.41673830e-04	0.00000000e+00
24.01           	1.32362180e-01	5.68158780e-06	1.55840480e-05	1.39169930e-04	0.00000000e+00
24.015          	1.68728120e-01	5.70471810e-06	1.56025070e-05	1.70351380e-04	0.00000000e+00
24.02           	3.94476470e-01	5.72770030e-06	1.56207160e-05	1.24587640e-04	0.00000000e+00
24.025          	2.15259470e-01	5.75053590e-06	1.56386790e-05	1.22085890e-04	0.00000000e+00
24.03           	8.90830190e-02	5.77322460e-06	1.56563960e-05	1.22736200e-04	0.00000000e+00
24.035          	8.79205780e-02	5.79576640e-06	1.56738660e-05	1.42089160e-04	0.00000000e+00
24.04           	8.78986180e-02	5.81816130e-06	1.56910910e-05	1.23136300e-04	0.00000000e+00
24.045          	1.18615970e-01	5.84041020e-06	1.57080720e-05	1.39102460e-04	0.00000000e+00
24.05           	1.57914820e-01	5.86251180e-06	1.57248070e-05	1.54911830e-04	0.00000000e+00
24.055          	8.31722510e-02	5.88446660e-06	1.57412960e-05	1.44452920e-04	0.00000000e+00
24.06           	1.38192670e-01	5.90627460e-06	1.57575400e-05	1.96884880e-04	0.00000000e+00
24.065          	1.31793990e-01	5.92793600e-06	1.57735390e-05	1.40475500e-04	0.00000000e+00
24.07           	1.92802720e-01	5.94945090e-06	1.57892950e-05	1.92389640e-04	0.00000000e+00
24.075          	2.95438990e-01	5.97081850e-06	1.58048050e-05	1.31367770e-04	0.00000000e+00
24.08           	1.12294820e-01	5.99204100e-06	1.58200740e-05	1.64006630e-04	0.00000000e+00
24.085          	6.18829080e-02	6.01311600e-06	1.58350980e-05	1.35259590e-04	0.00000000e+00
24.09           	4.08482400e-01	6.03404510e-06	1.58498800e-05	1.27589910e-04	0.00000000e+00
24.095          	1.42228320e-01	6.05482890e-06	1.58644220e-05	1.81425700e-04	0.00000000e+00
24.1            	1.24952890e-01	6.07546610e-06	1.58787200e-05	2.37334240e-04	0.00000000e+00
24.105          	1.03202650e-01	6.09595700e-06	1.58927770e-05	1.84220160e-04	0.00000000e+00
24.11           	9.79166060e-02	6.11630190e-06	1.59065920e-05	2.48507730e-04	0.00000000e+00
24.115          	1.52245260e-01	6.13650080e-06	1.59201650e-05	1.88242100e-04	0.00000000e+00
24.12           	1.06425390e-01	6.15655390e-06	1.59334980e-05	1.99823160e-04	0.00000000e+00
24.125          	1.36790400e-01	6.17646120e-06	1.59465900e-05	1.48106980e-04	0.00000000e+00
24.13           	8.57090600e-02	6.19622270e-06	1.59594430e-05	1.86273420e-04	0.00000000e+00
24.135          	2.91601200e-01	6.21583790e-06	1.59720530e-05	1.91443570e-04	0.00000000e+00
24.14           	2.79284150e-01	6.23530810e-06	1.59844260e-05	1.54001630e-04	0.00000000e+00
24.145          	2.60040580e-01	6.25463300e-06	1.59965600e-05	2.23698920e-04	0.00000000e+00
24.15           	1.58215700e-01	6.27381260e-06	1.60084550e-05	1.55507850e-04	0.00000000e+00
24.155          	2.07648390e-01	6.29284700e-06	1.60201130e-05	1.84362650e-04	0.00000000e+00
24.16           	4.14597490e-01	6.31173610e-06	1.60315320e-05	1.73512990e-04	0.00000000e+00
24.165          	1.47670640e-01	6.33048100e-06	1.60427160e-05	1.60300200e-04	0.00000000e+00
24.17           	1.69522130e-01	6.34907960e-06	1.60536590e-05	1.17703620e-04	0.00000000e+00
24.175          	2.68079730e-01	6.36753360e-06	1.60643660e-05	1.18405990e-04	0.00000000e+00
24.18           	1.99827090e-01	6.38584290e-06	1.60748380e-05	1.26988530e-04	0.00000000e+00
24.185          	1.02272820e-01	6.40400840e-06	1.60850750e-05	1.38835330e-04	0.00000000e+00
24.19           	1.35726000e-01	6.42202870e-06	1.60950750e-05	1.38675780e-04	0.00000000e+00
24.195          	1.45014740e-01	6.43990350e-06	1.61048370e-05	1.23263150e-04	0.00000000e+00
24.2            	1.74102890e-01	6.45763530e-06	1.61143680e-05	1.05651340e-04	0.00000000e+00
24.205          	3.50020140e-01	6.47522230e-06	1.61236630e-05	1.55192210e-04	0.00000000e+00
24.21           	1.25484330e-01	6.49266510e-06	1.61327230e-05	1.13431910e-04	0.00000000e+00
24.215          	1.22385670e-01	6.50996370e-06	1.61415500e-05	6.01632410e-05	0.00000000e+00
24.22           	2.92712590e-01	6.52711760e-06	1.61501410e-05	1.47840240e-04	0.00000000e+00
24.225          	1.22950150e-01	6.54412810e-06	1.61585010e-05	1.48533800e-04	0.00000000e+00
24.23           	2.04469070e-01	6.56099590e-06	1.61666300e-05	7.87634900e-05	0.00000000e+00
24.235          	1.29999250e-01	6.57771870e-06	1.61745240e-05	7.93418320e-05	0.00000000e+00
24.24           	1.02460860e-01	6.59429920e-06	1.61821890e-05	5.79580600e-05	0.00000000e+00
24.245          	1.60328440e-01	6.61073510e-06	1.61896190e-05	1.15837470e-04	0.00000000e+00
24.25           	9.55036800e-02	6.62702820e-06	1.61968200e-05	7.02460140e-05	0.00000000e+00
24.255          	1.08398910e-01	6.64317820e-06	1.62037900e-05	4.98689400e-05	0.00000000e+00
24.26           	1.06665800e-01	6.65918520e-06	1.62105300e-05	9.60550300e-05	0.00000000e+00
24.265          	1.41142470e-01	6.67504930e-06	1.62170400e-05	7.46928080e-05	0.00000000e+00
24.27           	2.10873190e-01	6.69077160e-06	1.62233230e-05	9.78218470e-05	0.00000000e+00
24.275          	1.52487010e-01	6.70634970e-06	1.62293740e-05	1.16164660e-04	0.00000000e+00
24.28           	1.12697360e-01	6.72178570e-06	1.62351970e-05	1.57729950e-04	0.00000000e+00
24.285          	1.14340190e-01	6.73707950e-06	1.62407920e-05	8.66602270e-05	0.00000000e+00
24.29           	1.37691910e-01	6.75223100e-06	1.62461590e-05	1.39385870e-04	0.00000000e+00
24.295          	8.62135370e-02	6.76724050e-06	1.62513000e-05	1.08743390e-04	0.00000000e+00
24.3            	8.21295290e-02	6.78210880e-06	1.62562150e-05	6.98419700e-05	0.00000000e+00
24.305          	1.03699810e-01	6.79683380e-06	1.62609000e-05	1.08511170e-04	0.00000000e+00
24.31           	2.58844470e-01	6.81141750e-06	1.62653610e-05	9.75086420e-05	0.00000000e+00
24.315          	1.27791850e-01	6.82586060e-06	1.62695980e-05	1.51888010e-04	0.00000000e+00
24.32           	1.73158990e-01	6.84016180e-06	1.62736080e-05	9.69375010e-05	0.00000000e+00
24.325          	2.94965560e-01	6.85432150e-06	1.62773940e-05	7.76150740e-05	0.00000000e+00
24.33           	1.98081840e-01	6.86834000e-06	1.62809550e-05	1.29655280e-04	0.00000000e+00
24.335          	9.51829880e-02	6.88221750e-06	1.62842920e-05	8.07295670e-05	0.00000000e+00
24.34           	3.17473200e-01	6.89595330e-06	1.62874030e-05	7.70194200e-05	0.00000000e+00
24.345          	7.57126090e-02	6.90954980e-06	1.62902950e-05	6.35447520e-05	0.00000000e+00
24.35           	1.61291100e-01	6.92300460e-06	1.62929620e-05	1.12087280e-04	0.00000000e+00
24.355          	8.06426610e-02	6.93631940e-06	1.62954070e-05	6.89413920e-05	0.00000000e+00
24.36           	1.22208110e-01	6.94949400e-06	1.62976320e-05	8.06663920e-05	0.00000000e+00
24.365          	7.52512850e-02	6.96252870e-06	1.62996350e-05	8.19685030e-05	0.00000000e+00
24.37           	1.66709180e-01	6.97542430e-06	1.63014190e-05	8.47037350e-05	0.00000000e+00
24.375          	1.77341670e-01	6.98817870e-06	1.63029800e-05	6.84127560e-05	0.00000000e+00
24.38           	7.94935290e-02	7.00079390e-06	1.63043220e-05	7.65298410e-05	0.00000000e+00
24.385          	1.23473810e-01	7.01326980e-06	1.63054450e-05	8.01076040e-05	0.00000000e+00
24.39           	4.06155050e-01	7.02560730e-06	1.63063510e-05	8.68506080e-05	0.00000000e+00
24.395          	1.47469310e-01	7.03780430e-06	1.63070350e-05	7.54352360e-05	0.00000000e+00
24.4            	1.53060590e-01	7.04986350e-06	1.63075040e-05	5.72655860e-05	0.00000000e+00
24.405          	4.53994650e-01	7.06178360e-06	1.63077550e-05	8.89261990e-05	0.00000000e+00
24.41           	1.09477450e-01	7.07356480e-06	1.63077880e-05	1.07429770e-04	0.00000000e+00
24.415          	1.99947300e-01	7.08520760e-06	1.63076040e-05	5.35662980e-05	0.00000000e+00
24.42           	7.64544720e-02	7.09671210e-06	1.63072040e-05	8.51724950e-05	0.00000000e+00
24.425          	1.72444170e-01	7.10807840e-06	1.63065890e-05	6.97538940e-05	0.00000000e+00
24.43           	2.61808920e-01	7.11930600e-06	1.63057570e-05	9.31766860e-05	0.00000000e+00
24.435          	2.32707090e-01	7.13039640e-06	1.63047110e-05	5.18717010e-05	0.00000000e+00
24.44           	1.77239070e-01	7.14135030e-06	1.63034530e-05	5.91760280e-05	0.00000000e+00
24.445          	1.00258510e-01	7.15216620e-06	1.63019810e-05	4.30377140e-05	0.00000000e+00
24.45           	1.47943720e-01	7.16284390e-06	1.63002920e-05	8.27064960e-05	0.00000000e+00
24.455          	1.24779230e-01	7.17338600e-06	1.62983940e-05	5.84534590e-05	0.00000000e+00
24.46           	4.01713270e-01	7.18378990e-06	1.62962810e-05	1.03631680e-04	0.00000000e+00
24.465          	1.05836200e-01	7.19405760e-06	1.62939580e-05	7.65641080e-05	0.00000000e+00
24.47           	2.11818450e-01	7.20418990e-06	1.62914250e-05	7.01756010e-05	0.00000000e+00
24.475          	9.57401760e-02	7.21418530e-06	1.62886800e-05	7.26533710e-05	0.00000000e+00
24.48           	1.11433020e-01	7.22404450e-06	1.62857250e-05	7.26274400e-05	0.00000000e+00
24.485          	1.54833490e-01	7.23376760e-06	1.62825590e-05	7.07368780e-05	0.00000000e+00
24.49           	5.06334370e-01	7.24335410e-06	1.62791820e-05	6.58421740e-05	0.00000000e+00
24.495          	1.47363950e-01	7.25280660e-06	1.62756000e-05	3.93356180e-05	0.00000000e+00
24.5            	1.22066150e-01	7.26212330e-06	1.62718090e-05	5.03510590e-05	0.00000000e+00
24.505          	1.70085430e-01	7.27130380e-06	1.62678070e-05	1.05711240e-04	0.00000000e+00
24.51           	2.21538720e-01	7.28035000e-06	1.62635990e-05	7.75771150e-05	0.00000000e+00
24.515          	7.80438610e-02	7.28926160e-06	1.62591850e-05	7.20255740e-05	0.00000000e+00
24.52           	1.24068400e-01	7.29803950e-06	1.62545660e-05	1.12758700e-04	0.00000000e+00
24.525          	8.36911890e-02	7.30668170e-06	1.62497390e-05	9.90371000e-05	0.00000000e+00
24.53           	1.15264410e-01	7.31519010e-06	1.62447070e-05	9.69539070e-05	0.00000000e+00
24.535          	8.52916980e-02	7.32356560e-06	1.62394730e-05	9.06906300e-05	0.00000000e+00
24.54           	1.61904030e-01	7.33180580e-06	1.62340310e-05	6.17948330e-05	0.00000000e+00
24.545          	1.56216880e-01	7.33991300e-06	1.62283860e-05	5.05572130e-05	0.00000000e+00
24.55           	1.72482510e-01	7.34788690e-06	1.62225380e-05	5.63422370e-05	0.00000000e+00
24.555          	1.97418130e-01	7.35572780e-06	1.62164880e-05	5.92851260e-05	0.00000000e+00
24.56           	9.04945050e-02	7.36343580e-06	1.62102350e-05	5.62267190e-05	0.00000000e+00
24.565          	2.83796550e-01	7.37101200e-06	1.62037830e-05	7.50771410e-05	0.00000000e+00
24.57           	2.80910010e-01	7.37845510e-06	1.61971290e-05	9.38682400e-05	0.00000000e+00
24.575          	3.78364910e-01	7.38576470e-06	1.61902710e-05	6.95514650e-05	0.00000000e+00
24.58           	9.72281610e-02	7.39294290e-06	1.61832140e-05	7.71096660e-05	0.00000000e+00
24.585          	1.26527410e-01	7.39999030e-06	1.61759600e-05	1.00176870e-04	0.00000000e+00
24.59           	1.72661950e-01	7.40690550e-06	1.61685060e-05	7.87595120e-05	0.00000000e+00
24.595          	5.88533550e-02	7.41368910e-06	1.61608530e-05	5.21059340e-05	0.00000000e+00
24.6            	9.14752080e-02	7.42034060e-06	1.61530000e-05	8.63421900e-05	0.00000000e+00
24.605          	1.33264280e-01	7.42686250e-06	1.61449520e-05	8.81691800e-05	0.00000000e+00
24.61           	1.91510730e-01	7.43325240e-06	1.61367050e-05	1.29454250e-04	0.00000000e+00
24.615          	1.78763200e-01	7.43951320e-06	1.61282640e-05	8.93401100e-05	0.00000000e+00
24.62           	1.34324110e-01	7.44564220e-06	1.61196250e-05	1.06123060e-04	0.00000000e+00
24.625          	3.67776770e-01	7.45164170e-06	1.61107910e-05	1.02220250e-04	0.00000000e+00
24.63           	6.88512820e-02	7.45751140e-06	1.61017630e-05	1.59867640e-04	0.00000000e+00
24.635          	1.45515330e-01	7.46325240e-06	1.60925420e-05	1.12180520e-04	0.00000000e+00
24.64           	1.31125010e-01	7.46886350e-06	1.60831270e-05	1.06156940e-04	0.00000000e+00
24.645          	1.20236010e-01	7.47434520e-06	1.60735180e-05	1.01724880e-04	0.00000000e+00
24.65           	1.48048950e-01	7.47969700e-06	1.60637140e-05	7.83802700e-05	0.00000000e+00
24.655          	1.07610750e-01	7.48492160e-06	1.60537210e-05	1.73307830e-04	0.00000000e+00
24.66           	1.20421040e-01	7.49001730e-06	1.60435370e-05	1.36458090e-04	0.00000000e+00
24.665          	2.25919510e-01	7.49498360e-06	1.60331580e-05	7.00914910e-05	0.00000000e+00
24.67           	1.10354180e-01	7.49982260e-06	1.60225910e-05	7.62421110e-05	0.00000000e+00
24.675          	1.15680570e-01	7.50453400e-06	1.60118340e-05	1.49196300e-04	0.00000000e+00
24.68           	1.70089910e-01	7.50911880e-06	1.60008900e-05	1.37798020e-04	0.00000000e+00
24.685          	1.82648870e-01	7.51357570e-06	1.59897560e-05	1.25369290e-04	0.00000000e+00
24.69           	1.16782780e-01	7.51790540e-06	1.59784330e-05	1.15945680e-04	0.00000000e+00
24.695          	8.53808450e-02	7.52210730e-06	1.59669210e-05	1.20395230e-04	0.00000000e+00
24.7            	2.05280190e-01	7.52618420e-06	1.59552240e-05	1.28071060e-04	0.00000000e+00
24.705          	1.35371170e-01	7.53013340e-06	1.59433390e-05	1.74674810e-04	0.00000000e+00
24.71           	2.16031760e-01	7.53395690e-06	1.59312680e-05	2.13847570e-04	0.00000000e+00
24.715          	3.57015940e-01	7.53765490e-06	1.59190120e-05	1.70059350e-04	0.00000000e+00
24.72           	1.24031700e-01	7.54122720e-06	1.59065720e-05	1.76285250e-04	0.00000000e+00
24.725          	1.44080670e-01	7.54467430e-06	1.58939470e-05	2.04066960e-04	0.00000000e+00
24.73           	1.34653800e-01	7.54799720e-06	1.58811410e-05	1.86090640e-04	0.00000000e+00
24.735          	1.26804630e-01	7.55119370e-06	1.58681480e-05	1.69190460e-04	0.00000000e+00
24.74           	2.91561400e-01	7.55426610e-06	1.58549740e-05	2.08728480e-04	0.00000000e+00
24.745          	7.53400820e-02	7.55721520e-06	1.58416200e-05	1.77888640e-04	0.00000000e+00
24.75           	9.81413920e-02	7.56003870e-06	1.58280810e-05	1.72759220e-04	0.00000000e+00
24.755          	1.81517070e-01	7.56273970e-06	1.58143640e-05	1.25797610e-04	0.00000000e+00
24.76           	1.83754870e-01	7.56531580e-06	1.58004640e-05	1.53124510e-04	0.00000000e+00
24.765          	2.33085210e-01	7.56776900e-06	1.57863850e-05	1.66713450e-04	0.00000000e+00
24.77           	9.09284000e-02	7.57009930e-06	1.57721280e-05	1.58146820e-04	0.00000000e+00
24.775          	2.25145750e-01	7.57230780e-06	1.57576940e-05	1.67275400e-04	0.00000000e+00
24.78           	1.16263810e-01	7.57439230e-06	1.57430790e-05	1.56988560e-04	0.00000000e+00
24.785          	1.75034870e-01	7.57635580e-06	1.57282890e-05	1.75636070e-04	0.00000000e+00
24.79           	3.04294730e-01	7.57819580e-06	1.57133190e-05	1.27873870e-04	0.00000000e+00
24.795          	1.13127060e-01	7.57991460e-06	1.56981750e-05	1.18544660e-04	0.00000000e+00
24.8            	1.29450410e-01	7.58151210e-06	1.56828550e-05	1.16643440e-04	0.00000000e+00
24.805          	1.46100900e-01	7.58298930e-06	1.56673610e-05	1.31869390e-04	0.00000000e+00
24.81           	1.85069030e-01	7.58434490e-06	1.56516930e-05	1.68067250e-04	0.00000000e+00
24.815          	1.23323780e-01	7.58557870e-06	1.56358470e-05	2.30157100e-04	0.00000000e+00
24.82           	5.45562810e-02	7.58669360e-06	1.56198320e-05	1.56031840e-04	0.00000000e+00
24.825          	8.85769440e-02	7.58768790e-06	1.56036430e-05	9.78489560e-05	0.00000000e+00
24.83           	2.86193120e-01	7.58856130e-06	1.55872800e-05	1.22210910e-04	0.00000000e+00
24.835          	1.32782980e-01	7.58931550e-06	1.55707460e-05	1.32846260e-04	0.00000000e+00
24.84           	1.11959990e-01	7.58995070e-06	1.55540420e-05	1.25141820e-04	0.00000000e+00
24.845          	1.49338730e-01	7.59046780e-06	1.55371700e-05	1.01695730e-04	0.00000000e+00
24.85           	9.10794960e-02	7.59086540e-06	1.55201260e-05	9.82581960e-05	0.00000000e+00
24.855          	2.83489940e-01	7.59114440e-06	1.55029130e-05	8.97546240e-05	0.00000000e+00
24.86           	2.98634980e-01	7.59130500e-06	1.54855320e-05	9.79008360e-05	0.00000000e+00
24.865          	1.43169010e-01	7.59134670e-06	1.54679800e-05	4.91344260e-05	0.00000000e+00
24.87           	1.43356560e-01	7.59127230e-06	1.54502640e-05	8.13085360e-05	0.00000000e+00
24.875          	1.00964620e-01	7.59108000e-06	1.54323800e-05	1.07101200e-04	0.00000000e+00
24.88           	1.53264410e-01	7.59077050e-06	1.54143310e-05	9.15616990e-05	0.00000000e+00
24.885          	1.59248440e-01	7.59034310e-06	1.53961130e-05	9.57117800e-05	0.00000000e+00
24.89           	9.56464670e-02	7.58979970e-06	1.53777320e-05	7.37369370e-05	0.00000000e+00
24.895          	1.58807120e-01	7.58914030e-06	1.53591860e-05	9.09259560e-05	0.00000000e+00
24.9            	2.51903610e-01	7.58836580e-06	1.53404800e-05	9.22567600e-05	0.00000000e+00
24.905          	9.67941560e-02	7.58747510e-06	1.53216080e-05	7.59878670e-05	0.00000000e+00
24.91           	1.65545230e-01	7.58646770e-06	1.53025720e-05	9.87884300e-05	0.00000000e+00
24.915          	8.54459520e-02	7.58534670e-06	1.52833770e-05	1.48916740e-04	0.00000000e+00
24.92           	1.16312320e-01	7.58410940e-06	1.52640180e-05	8.70965390e-05	0.00000000e+00
24.925          	3.34519940e-01	7.58275800e-06	1.52444990e-05	1.01600810e-04	0.00000000e+00
24.93           	2.09978370e-01	7.58129250e-06	1.52248200e-05	4.43865310e-05	0.00000000e+00
24.935          	7.62912200e-02	7.57971310e-06	1.52049810e-05	9.42715310e-05	0.00000000e+00
24.94           	1.69780970e-01	7.57802080e-06	1.51849860e-05	7.13029630e-05	0.00000000e+00
24.945          	2.27796750e-01	7.57621460e-06	1.51648310e-05	5.55372100e-05	0.00000000e+00
24.95           	3.55313380e-01	7.57429400e-06	1.51445160e-05	6.60630750e-05	0.00000000e+00
24.955          	2.24324710e-01	7.57226120e-06	1.51240460e-05	8.22194930e-05	0.00000000e+00
24.96           	6.09494170e-02	7.57011690e-06	1.51034210e-05	9.93520300e-05	0.00000000e+00
24.965          	1.63276340e-01	7.56785890e-06	1.50826370e-05	1.03096320e-04	0.00000000e+00
24.97           	2.76987000e-01	7.56548930e-06	1.50616990e-05	7.30225550e-05	0.00000000e+00
24.975          	1.91264470e-01	7.56300910e-06	1.50406080e-05	7.97741120e-05	0.00000000e+00
24.98           	2.72751930e-01	7.56041710e-06	1.50193620e-05	7.01262460e-05	0.00000000e+00
24.985          	1.18267410e-01	7.55771280e-06	1.49979600e-05	5.96950100e-05	0.00000000e+00
24.99           	1.36351960e-01	7.55489920e-06	1.49764090e-05	6.96459320e-05	0.00000000e+00
24.995          	1.06619920e-01	7.55197380e-06	1.49547030e-05	8.22854850e-05	0.00000000e+00
25              	1.95385130e-01	7.54893860e-06	1.49328460e-05	9.92602250e-05	0.00000000e+00
